&control
 calculation = 'nscf'
 wf_collect = .true.
 verbosity = 'high'
 outdir='temp'
 pseudo_dir="~/Pseudopotential/pseudo-ONCV-proj/"
 etot_conv_thr=1d-6,
 forc_conv_thr=1d-5,
 nstep=1000
/

&system
 input_dft = "hse" ! test smearing pbe level 
 exx_fraction = 0.375
 !screening_parameter=0.2
 ibrav = 0
 !a = 12.994354248
 !c = 15.612038612
 nat = 191
 ntyp = 4
 ecutwfc = 80 ! o 70 
 ecutfock = 160 !
 nspin = 2
 !tot_magnetization = 2
 starting_magnetization(1) = 0.5 ! 0.6, 0.8, 1
 starting_magnetization(2) = 0
 starting_magnetization(3) = 0 ! 0.1
 starting_magnetization(4) = 1
 ! tot_magnetization = 2
 occupations = "smearing"
 degauss = 0.0001 ! test 0.001, 0.005
 tot_charge = +1
 nbnd = 3000 ! see this change
 force_symmorphic=.true. !Yambo require this
/

&electrons
 conv_thr = 1e-09
 electron_maxstep = 100
 mixing_beta = 0.4
 adaptive_thr = .TRUE.
/

&ions
/
&cell
/
ATOMIC_SPECIES
Zn1  0.0  Zn_ONCV_PBE-1.0.upf
Zn  0.0  Zn_ONCV_PBE-1.0.upf
O  0.0  O_ONCV_PBE-1.0.upf
Nb 0.0 Nb_ONCV_PBE-1.0.upf

K_POINTS gamma
CELL_PARAMETERS (angstrom)
    12.9943542480000005    0.0000000000000000    0.0000000000000000
    -6.4971766471999999   11.2534400587000007    0.0000000000000000
     0.0000000000000000    0.0000000000000000   15.6120386123999992
ATOMIC_POSITIONS (crystal)
Zn         0.1666073589278671  0.0833926330721323  0.1659104517370365
Zn         0.1667361456756158  0.0832638463243835  0.5004908777181436
Zn         0.1665901210471560  0.0834098709528433  0.8335804190440130
Zn         0.1663872293558695  0.3331856628219085  0.1662750469961795
Zn         0.1660056137297501  0.3330077431260111  0.5002473344382408
Zn         0.1666929728824133  0.3333328402254177  0.8336196143431994
Zn         0.1666023904344271  0.5832045282512740  0.1659132763290923
Zn         0.1667587358977058  0.5835075292070860  0.5004845712975202
Zn         0.1665841364400913  0.5831699378263576  0.8335972091511477
Zn         0.1667636718798548  0.8333813284304152  0.1659204274271471
Zn         0.1675749980632772  0.8337991848978158  0.5004563391221586
Zn         0.1667907289075626  0.8334014432153508  0.8338215397557652
Zn         0.4166186715695848  0.0832363201201445  0.1659204274271471
Zn         0.4162008151021840  0.0824249939367222  0.5004563391221586
Zn         0.4165985567846491  0.0832092630924368  0.8338215397557652
Zn         0.4157161326989476  0.3327910086337644  0.1661394093593407
Zn         0.4102482076373561  0.3285120472124313  0.5024089729543808
Zn         0.4182562452955603  0.3342038679048345  0.8326794232248860
Zn         0.4157087488089984  0.5829226415362355  0.1661354701932034
Zn         0.4102417629135335  0.5817678218832335  0.5024117225666028
Zn         0.4182031400647193  0.5840620460568169  0.8326978940239559
Zn         0.4166108665415587  0.8333891334584412  0.1659197274923927
Zn         0.4161966488345086  0.8338033511654914  0.5004634554062479
Zn         0.4165777153185412  0.8334222846814586  0.8338344908690002
Zn         0.6667954717487260  0.0833976015655722  0.1659132763290923
Zn         0.6664924707929140  0.0832412561022934  0.5004845712975202
Zn         0.6668300621736424  0.0834158555599081  0.8335972091511477
Zn         0.6670850782525463  0.3327891482410444  0.1661416378941672
Zn         0.6682878804594027  0.3284876949949092  0.5024122022735319
Zn         0.6659864815904192  0.3341656308520679  0.8326945503395332
Zn         0.6666630821710133  0.5833369178289867  0.1676052493149379
Zn         0.6666597230848678  0.5833402769151322  0.8344833522999308
Zn         0.6670773584637645  0.8342912511910014  0.1661354701932034
Zn         0.6682321781167665  0.8397582370864664  0.5024117225666028
Zn         0.6659379539431831  0.8317968599352806  0.8326978940239559
Zn         0.9168143371780915  0.0836127626441299  0.1662750469961795
Zn         0.9169922568739888  0.0839943782702492  0.5002473344382408
Zn         0.9166671597745824  0.0833070191175860  0.8336196143431994
Zn         0.9168182353926793  0.3331817646073207  0.1662774310347671
Zn         0.9170309775854117  0.3329690224145883  0.5002696722149221
Zn         0.9166921523922360  0.3333078476077641  0.8336326009335477
Zn         0.9172108517589556  0.5829149217474537  0.1661416378941672
Zn         0.9215123050050837  0.5817121195405973  0.5024122022735319
Zn         0.9158343691479320  0.5840135184095808  0.8326945503395332
Zn         0.9172089913662357  0.8342838673010525  0.1661394093593407
Zn         0.9214879527875688  0.8397517923626440  0.5024089729543808
Zn         0.9157961320951654  0.8317437547044395  0.8326794232248860
Zn         0.0832946178063963  0.1667053741936030 -0.0000383945965100
Zn         0.0833071623423658  0.1666928296576335  0.3329963894026823
Zn         0.0834374784947909  0.1665625135052085  0.6670221274738035
Zn         0.0832981831040605  0.4165873760409427 -0.0000311399127131
Zn         0.0833128364871170  0.4166194120484900  0.3329971035396392
Zn         0.0834930310834000  0.4169175279242287  0.6670342396251447
Zn         0.0831696694365476  0.6665522438780282  0.9996562680815365
Zn         0.0844924204016871  0.6671233043842559  0.3325096205841402
Zn         0.0827057080266096  0.6670425294273723  0.6678223660963366
Zn         0.0831585563472671  0.9166183752090725  0.9996505029214127
Zn         0.0844835274220117  0.9173769011566351  0.3325091501839424
Zn         0.0826596862216410  0.9156549682247360  0.6678232928884287
Zn         0.3333816247909274  0.1668414356527322  0.9996505029214127
Zn         0.3326230988433650  0.1655164645779877  0.3325091501839424
Zn         0.3343450317752640  0.1673403057783583  0.6678232928884287
Zn         0.3335244074039539  0.4167656410452192  0.9994991876624033
Zn         0.3323158652734019  0.4161640675328868  0.3330257902741908
Zn         0.3337839767001229  0.4169319965209206  0.6680156448682133
Zn         0.3333715090396115  0.6665493928337987  0.9996618890153214
Zn         0.3326226850039746  0.6671274413713568  0.3325081528363356
Zn         0.3343422154266873  0.6670772771405308  0.6678272726423777
Zn         0.3333268727208120  0.9166731272791879 -0.0000028273047787
Zn         0.3333272861682147  0.9166727138317784  0.3325835094603080
Zn         0.3332983751185713  0.9167016248814287  0.6671816414143212
Zn         0.5834477561219718  0.1668303225634518  0.9996562680815365
Zn         0.5828766956157441  0.1655075715983122  0.3325096205841402
Zn         0.5829574705726277  0.1672942839733897  0.6678223660963366
Zn         0.5833265269901762  0.4166308849240832  0.0008671794022612
Zn         0.5818995169744559  0.4137833430692098  0.3297944213694797
Zn         0.5903579513391701  0.4305607925380923  0.6630938577979835
Zn         0.5833125465448804  0.6666874534551196  0.0008670297364280
Zn         0.5818799752156579  0.6681200247843421  0.3297993256089505
Zn         0.5902497050976406  0.6597502949023594  0.6631115610494385
Zn         0.5834506071662013  0.9166284909603957  0.9996618890153214
Zn         0.5828725586286432  0.9173773149960254  0.3325081528363356
Zn         0.5829227228594692  0.9156577845733128  0.6678272726423777
Zn         0.8334126239590572  0.1667018088959388 -0.0000311399127131
Zn         0.8333805879515100  0.1666871555128823  0.3329971035396392
Zn         0.8330824720757714  0.1665069609165993  0.6670342396251447
Zn         0.8332394418767091  0.4167605581232910  0.9995158755922615
Zn         0.8338502106601318  0.4161497893398683  0.3330259545848467
Zn         0.8331771007996767  0.4168228992003233  0.6680409204705678
Zn         0.8333691150759167  0.6666734730098238  0.0008671794022612
Zn         0.8362166569307972  0.6681004830255441  0.3297944213694797
Zn         0.8194392074619077  0.6596420486608299  0.6630938577979835
Zn         0.8332343589547809  0.9164755925960462  0.9994991876624033
Zn         0.8338359324671134  0.9176841347265982  0.3330257902741908
Zn         0.8330680034790794  0.9162160232998771  0.6680156448682133
O         0.1665366763967074  0.0834633156032919  0.2934176708976834
O         0.1669936902721482  0.0830063017278512  0.6272495435420788
O         0.1666342531635011  0.0833657388364982  0.9606374807310284
O         0.1666429707384603  0.3333151821431227  0.2938046528992537
O         0.1673971863475902  0.3336928560890729  0.6269634252632380
O         0.1667801023816371  0.3333819626859854  0.9606487849001974
O         0.1665307637223863  0.5830639839614479  0.2934210653677610
O         0.1670218370493601  0.5840100647839186  0.6272436857190189
O         0.1666288832800504  0.5832512088547978  0.9606496687215440
O         0.1666141750169483  0.8333076186110840  0.2934021751491900
O         0.1665074485916538  0.8332694974551478  0.6270152709076375
O         0.1666623458560020  0.8333272427548002  0.9607574735985687
O         0.4166923813889160  0.0833858169830511  0.2934021751491900
O         0.4167305025448594  0.0834925434083456  0.6270152709076375
O         0.4166727572451998  0.0833376461439973  0.9607574735985687
O         0.4163843797604175  0.3332039039630885  0.2943425085117761
O         0.4191152689700033  0.3350793513942711  0.6277303932167494
O         0.4174620768806840  0.3337862424164468  0.9601517969456923
O         0.4163689750547989  0.5831684984612816  0.2943354209025247
O         0.4190473147066991  0.5841029555036069  0.6277348713051627
O         0.4174486181624421  0.5836775092185977  0.9601643390217733
O         0.4166872321197395  0.8333127678802605  0.2934014025834261
O         0.4167019865239591  0.8332980134760408  0.6270208640891428
O         0.4166657961521440  0.8333342038478562  0.9607678611761928
O         0.6669360160385521  0.0834692282776131  0.2934210653677610
O         0.6659899352160814  0.0829781549506393  0.6272436857190189
O         0.6667487911452022  0.0833711087199489  0.9606496687215440
O         0.6668362721946407  0.3332014057152833  0.2943431951534927
O         0.6660291174711352  0.3349728820512130  0.6277331590051133
O         0.6663463565591691  0.3337688775823039  0.9601629935221244
O         0.6666640484379280  0.5833359515620720  0.2981955083421109
O         0.6666692087471624  0.5833307912528376  0.9611202879009804
O         0.6668315015387184  0.8336310249452010  0.2943354209025247
O         0.6658970444963931  0.8309526852933010  0.6277348713051627
O         0.6663224907814023  0.8325513818375581  0.9601643390217733
O         0.9166848178568773  0.0833570212615391  0.2938046528992537
O         0.9163071439109270  0.0826028056524091  0.6269634252632380
O         0.9166180373140144  0.0832198896183622  0.9606487849001974
O         0.9166908441262205  0.3333091558737724  0.2938053204375543
O         0.9163702704530649  0.3336297295469353  0.6269750680063603
O         0.9166245287607749  0.3333754712392251  0.9606598452749091
O         0.9167985942847167  0.5831637278053593  0.2943431951534927
O         0.9150271179487871  0.5839708825288648  0.6277331590051133
O         0.9162311224176960  0.5836536434408309  0.9601629935221244
O         0.9167960960369116  0.8336156202395824  0.2943425085117761
O         0.9149206486057290  0.8308847310299966  0.6277303932167494
O         0.9162137575835532  0.8325379231193161  0.9601517969456923
O         0.0832994810599630  0.1667005109400363  0.1272430786889445
O         0.0835077962735488  0.1664921957264505  0.4603436931634770
O         0.0833021338206972  0.1666978581793021  0.7937449123414572
O         0.0833008818121573  0.4166000018721456  0.1272482016205786
O         0.0835405797978073  0.4170600785641200  0.4603422876376199
O         0.0833203403174936  0.4166123998504703  0.7937526372988684
O         0.0832132340709734  0.6665982010745231  0.1270908230509372
O         0.0837671870137634  0.6672028111327559  0.4598870459069269
O         0.0830814137989788  0.6666388481431264  0.7942684328429825
O         0.0832087307075310  0.9166194411317312  0.1270879311003628
O         0.0837454862508182  0.9165905154159832  0.4598886718636349
O         0.0830556353085050  0.9164378778544692  0.7942625154389813
O         0.3333805588682690  0.1667912612924684  0.1270879311003628
O         0.3334094845840238  0.1662545057491811  0.4598886718636349
O         0.3335621221455379  0.1669443566914943  0.7942625154389813
O         0.3333131345703431  0.4166601492644664  0.1271538189860874
O         0.3345633621543770  0.4173009763591441  0.4605611500526136
O         0.3335393287498039  0.4167858682004894  0.7942988969381529
O         0.3333713437096771  0.6666056228211813  0.1270923142007664
O         0.3334271469532521  0.6672082347184407  0.4598820975913536
O         0.3335469483224612  0.6666624260761561  0.7942757591169207
O         0.3333247633799678  0.9166752366200320  0.1272010462054123
O         0.3333187320709863  0.9166812679290138  0.4597934007890737
O         0.3333136450604475  0.9166863549395525  0.7939108357924473
O         0.5834017989254769  0.1667867579290259  0.1270908230509372
O         0.5827971888672441  0.1662328049862359  0.4598870459069269
O         0.5833611518568736  0.1669185782010205  0.7942684328429825
O         0.5835262810419881  0.4170438800328721  0.1288522542425035
O         0.5840420122343792  0.4180189272529475  0.4627638613460824
O         0.5843366883813311  0.4185883374943998  0.7904697286954909
O         0.5835121689844853  0.6664878310155147  0.1288514082561091
O         0.5839964011345103  0.6660035988654897  0.4627670059623382
O         0.5842669799518194  0.6657330200481806  0.7904812157108092
O         0.5833943771788187  0.9166286562903230  0.1270923142007664
O         0.5827917652815593  0.9165728530467478  0.4598820975913536
O         0.5833375739238439  0.9164530516775388  0.7942757591169207
O         0.8333999981278543  0.1666991101878420  0.1272482016205786
O         0.8329399214358799  0.1664594122021920  0.4603422876376199
O         0.8333876001495297  0.1666796516825057  0.7937526372988684
O         0.8333464389412797  0.4166535610587203  0.1271628342916956
O         0.8327581767903648  0.4172418232096352  0.4605600673367912
O         0.8332627145842143  0.4167372854157858  0.7943128045672164
O         0.8329561199671279  0.6664737189580119  0.1288522542425035
O         0.8319810727470525  0.6659579877656208  0.4627638613460824
O         0.8314116625056002  0.6656633116186689  0.7904697286954909
O         0.8333398507355337  0.9166868654296572  0.1271538189860874
O         0.8326990236408559  0.9154366378456229  0.4605611500526136
O         0.8332141317995106  0.9164606712501960  0.7942988969381529
Nb         0.6666564605346971  0.5833435394653029  0.5047887317390204
