Zn2 O2                                  
   1.00000000000000     
    12.9943542480000005    0.0000000000000000    0.0000000000000000
    -6.4971766471999999   11.2534400587000007    0.0000000000000000
     0.0000000000000000    0.0000000000000000   15.6120386123999992
   Zn   O    Mo
    95    96     1
Direct
  0.0832769868793071  0.1665539737586213  0.0022693050168229
  0.0832520822592531  0.1665041645185061  0.3350625055834150
  0.0832910850768281  0.1665821561536480  0.6694084369310300
  0.0836916446337260  0.4168862320578714  0.0021921161462464
  0.0855056111482991  0.4174085027613480  0.3347121529092650
  0.0843456188074746  0.4171396250903666  0.6704718049303792
  0.0836788206061393  0.6668128476886909  0.0021844048360723
  0.0855100923120502  0.6681014242110013  0.3347154050513857
  0.0843336720950867  0.6671998910338124  0.6704753541841826
  0.0832790569299543  0.9167221159683071  0.0022523181036729
  0.0832528679879316  0.9167377178296492  0.3350653885426754
  0.0832751084860870  0.9167047072927214  0.6694052651500992
  0.3329493545502680  0.1664877795492940  0.0022393965500305
  0.3313456361640413  0.1656599510219919  0.3351816677602137
  0.3320201501696890  0.1660163701059972  0.6711773456537650
  0.3331946244241449  0.4168862320578714  0.0021921161462464
  0.3319029286130413  0.4174085027613480  0.3347121529092650
  0.3327940432828987  0.4171396250903666  0.6704718049303792
  0.3333427362162176  0.6666854134324268  0.0022215159172432
  0.3333344777470285  0.6666688964940556  0.3350024736351406
  0.3333433492205972  0.6666866394411930  0.6695272780765437
  0.3331887258707085  0.9163299725205579  0.0021830822225458
  0.3319049114316460  0.9144956288812851  0.3347133217157285
  0.3327990093013817  0.9156818501578673  0.6704739694197891
  0.5833552367421083  0.1667105044842228  0.0056477926930806
  0.5791905920488200  0.1583812150976530  0.3297284280628364
  0.5825070822470712  0.1650141954941558  0.6693622939684446
  0.5833426340039685  0.4166322322554140  0.0056551789219691
  0.5791834664005959  0.4208113877278615  0.3297254369987316
  0.5825048705285105  0.4174761692101978  0.6693681693761295
  0.5831339740825507  0.6668128476886909  0.0021844048360723
  0.5825912788989359  0.6681014242110013  0.3347154050513857
  0.5828661659387175  0.6671998910338124  0.6704753541841826
  0.5831412156498361  0.9163299725205579  0.0021830822225458
  0.5825906864496330  0.9144956288812851  0.3347133217157285
  0.5828828698564844  0.9156818501578673  0.6704739694197891
  0.8335384839990202  0.1664877795492940  0.0022393965500305
  0.8343143738579589  0.1656599510219919  0.3351816677602137
  0.8339962789363166  0.1660163701059972  0.6711773456537650
  0.8332895672514392  0.4166322322554140  0.0056551789219691
  0.8416278903272595  0.4208113877278615  0.3297254369987316
  0.8349712676816883  0.4174761692101978  0.6693681693761295
  0.8335215827871842  0.6670432265743701  0.0022398773672712
  0.8343218956746973  0.6686438523494029  0.3351789681016841
  0.8339707146808590  0.6679414903617337  0.6711797551357167
  0.8334429840383502  0.9167221159683071  0.0022523181036729
  0.8334847748417079  0.9167377178296492  0.3350653885426754
  0.8334295238066317  0.9167047072927214  0.6694052651500992
  0.9170953357242063  0.8341906104484041  0.1686040924132323
  0.9174024349712628  0.8348048089425243  0.5023033285835855
  0.9168074230203204  0.8336147850406321  0.8361502912372404
  0.9171004158966789  0.0828989303767896  0.1686015092904239
  0.9174234380602202  0.0825809431331618  0.5023038804420371
  0.9168149224582191  0.0831779908344241  0.8361516331008060
  0.9181386951020637  0.3323205264133475  0.1684043414802479
  0.9230137507040607  0.3303447671391417  0.5050327075602919
  0.9163394721796577  0.3336459440368316  0.8371073378951249
  0.9181277958969714  0.5857990522557781  0.1683978916490236
  0.9230034964889718  0.5926348917666070  0.5050360762123991
  0.9163327681238764  0.5826664433963754  0.8371081196305198
  0.1665453610669885  0.8334577865959335  0.1682690726511015
  0.1667118816660190  0.8332731322381631  0.5024723644161530
  0.1665367959314179  0.8334629669337825  0.8362666057516172
  0.1657987164801061  0.0828989303767896  0.1686015092904239
  0.1651577070729442  0.0825809431331618  0.5023038804420371
  0.1663632703762075  0.0831779908344241  0.8361516331008060
  0.1665481878335566  0.3330961376671220  0.1682726786761169
  0.1667284338916295  0.3334566297832678  0.5024654214475658
  0.1665358257095030  0.3330714134190148  0.8362749628158164
  0.1671349728196175  0.5835751312159638  0.1684352944070266
  0.1679220125988415  0.5839685042887530  0.5028420701834397
  0.1668752126231932  0.5834366544129252  0.8363098594812545
  0.4164399150317012  0.8328797110633962  0.1684332982964335
  0.4160467349224269  0.8320933508448405  0.5028398657412825
  0.4165721202115849  0.8331441214231705  0.8363046570581434
  0.4141965599659075  0.0818765960114348  0.1683933332610975
  0.4073492234545016  0.0769961171569144  0.5050371535002004
  0.4173247700297554  0.0836823245502986  0.8371093993324971
  0.4141820103112879  0.3323205264133475  0.1684043414802479
  0.4073312544350937  0.3303447671391417  0.5050327075602919
  0.4173067098571723  0.3336459440368316  0.8371073378951249
  0.4164403813963541  0.5835751312159638  0.1684352944070266
  0.4160467146899050  0.5839685042887530  0.5028420701834397
  0.4165616647897470  0.5834366544129252  0.8363098594812545
  0.6669125455289407  0.8334577865959335  0.1682690726511015
  0.6665613705721539  0.8332731322381631  0.5024723644161530
  0.6669262910023747  0.8334629669337825  0.8362666057516172
  0.6676802520455168  0.0818765960114348  0.1683933332610975
  0.6696471097024236  0.0769961171569144  0.5050371535002004
  0.6663577705205398  0.0836823245502986  0.8371093993324971
  0.6666619076846252  0.3333236953692476  0.1722954309584870
  0.6666732376229353  0.3333463552458607  0.8391046258444654
  0.6676714943587910  0.5857990522557781  0.1683978916490236
  0.6696316332776265  0.5926348917666070  0.5050360762123991
  0.6663339132724901  0.5826664433963754  0.8371081196305198
  0.0833503458856440  0.1667006927712775  0.1295108200377696
  0.0836091427950128  0.1672182715900245  0.4625268025678761
  0.0833402773331505  0.1666805556662904  0.7959682922207320
  0.0834900483560521  0.4168640495365016  0.1296094131372432
  0.0839294972795640  0.4174667430353141  0.4621964810292208
  0.0826695298452200  0.4164048503517292  0.7967264011227335
  0.0834830060952164  0.6666386520148809  0.1296060381853807
  0.0839133737522600  0.6664737656626849  0.4621986372704864
  0.0826622559269571  0.6662600633137645  0.7967282871559842
  0.0833438623094924  0.9166543533491406  0.1295110784377602
  0.0835909968354414  0.9163922243262238  0.4625297042809010
  0.0833359893019281  0.9166600105697160  0.7959644316863173
  0.3329775066225359  0.1664936222745060  0.1298224839985281
  0.3344892954299947  0.1672478322270992  0.4628327222857579
  0.3339294629723029  0.1669729819892007  0.7971873944227478
  0.3333740381804561  0.4168640495365016  0.1296094131372432
  0.3335372827557496  0.4174667430353141  0.4621964810292208
  0.3337353575065087  0.4164048503517292  0.7967264011227335
  0.3333401548915068  0.6666802507830193  0.1294840138421101
  0.3333394863407619  0.6666789136815297  0.4622954015524222
  0.3333402785676192  0.6666804981352512  0.7960918646343189
  0.3333695102631484  0.9165237799424506  0.1296040045598898
  0.3335139039324086  0.9160744895000115  0.4621992424575798
  0.3337456868551915  0.9173574608652382  0.7967282378459813
  0.5840543441861743  0.1681087193723474  0.1346826249726361
  0.5834211097376089  0.1668422504752310  0.4646164517651834
  0.5843439247704015  0.1686878805408093  0.7948359118490164
  0.5840347780702110  0.4159477781954538  0.1346888483795237
  0.5833902831481657  0.4166035804011680  0.4646165468082524
  0.5843141202910987  0.4156558923517301  0.7948350405535123
  0.5831555929196637  0.6666386520148809  0.1296060381853807
  0.5825603389104169  0.6664737656626849  0.4621986372704864
  0.5835977543867923  0.6662600633137645  0.7967282871559842
  0.5831542986793083  0.9165237799424506  0.1296040045598898
  0.5825606145675944  0.9160744895000115  0.4621992424575798
  0.5836118030100456  0.9173574608652382  0.7967282378459813
  0.8335161746519643  0.1664936222745060  0.1298224839985281
  0.8327585957971129  0.1672478322270992  0.4628327222857579
  0.8330435780168992  0.1669729819892007  0.7971873944227478
  0.8319129691252297  0.4159477781954538  0.1346888483795237
  0.8332132662529893  0.4166035804011680  0.4646165468082524
  0.8313417410606253  0.4156558923517301  0.7948350405535123
  0.8335078248194285  0.6670157106388582  0.1298195823062664
  0.8327393896304091  0.6654788402608265  0.4628317696776854
  0.8330228369922095  0.6660457349844202  0.7971891538933888
  0.8333104900396374  0.9166543533491406  0.1295110784377602
  0.8328011524907798  0.9163922243262238  0.4625297042809010
  0.8333240202677843  0.9166600105697160  0.7959644316863173
  0.9168401605635061  0.8336802601269966  0.2961103725107538
  0.9164521532375991  0.8329042454751897  0.6290156137548861
  0.9165984886643708  0.8331969163287329  0.9629605165989176
  0.9168377527223441  0.0831423258466567  0.2961099894875971
  0.9164697267060855  0.0835208698621802  0.6290173856200021
  0.9166054283148041  0.0833885785809908  0.9629621578654320
  0.9176137053842564  0.3325326971091558  0.2966684827780832
  0.9160188166179186  0.3330077887245171  0.6298371169757402
  0.9159650431422239  0.3339370098132915  0.9641345683827345
  0.9176261958805337  0.5850806864349002  0.2966608764359028
  0.9160084985480059  0.5829800489900197  0.6298436853012965
  0.9159441176779134  0.5819964792492712  0.9641342252894987
  0.1664278838009673  0.8335701913608700  0.2957516002038177
  0.1667504036002384  0.8332383342273597  0.6291910980081902
  0.1666385538563090  0.8333576827884687  0.9630606382173993
  0.1663047751243150  0.0831423258466567  0.2961099894875971
  0.1670513451560972  0.0835208698621802  0.6290173856200021
  0.1667833372661773  0.0833885785809908  0.9629621578654320
  0.1664234919336601  0.3328467458673219  0.2957568624974022
  0.1667558801196772  0.3335115222393703  0.6291831387947519
  0.1666404950132751  0.3332807520265589  0.9630671834171144
  0.1666646819328256  0.5833315123941273  0.2959195950121897
  0.1662726925890091  0.5831373248668648  0.6294838664634104
  0.1666652591057489  0.5833359968940544  0.9630457503987722
  0.4166644741769429  0.8333288293538865  0.2959158006842061
  0.4168757464442961  0.8337513738885788  0.6294845061518317
  0.4166755435118996  0.8333509680238000  0.9630404427600423
  0.4149229905542680  0.0823712899389531  0.2966567484914029
  0.4170056223601250  0.0840000446988043  0.6298437625660004
  0.4179770588773980  0.0840580890696592  0.9641363401594830
  0.4149192297248978  0.3325326971091558  0.2966684827780832
  0.4169892101066039  0.3330077887245171  0.6298371169757402
  0.4179721456710788  0.3339370098132915  0.9641345683827345
  0.4166670534613024  0.5833315123941273  0.2959195950121897
  0.4168648552778563  0.5831373248668648  0.6294838664634104
  0.4166709607883061  0.5833359968940544  0.9630457503987722
  0.6671424275599055  0.8335701913608700  0.2957516002038177
  0.6664880506271242  0.8332383342273597  0.6291910980081902
  0.6667192489321554  0.8333576827884687  0.9630606382173993
  0.6674485153846746  0.0823712899389531  0.2966567484914029
  0.6669946383386830  0.0840000446988043  0.6298437625660004
  0.6660812461922506  0.0840580890696592  0.9641363401594830
  0.6666691427327469  0.3333381654654838  0.3163360272638983
  0.6666700665017048  0.3333400130034070  0.6134601018256758
  0.6666663414188655  0.3333325628377211  0.9657183200499496
  0.6674546695543637  0.5850806864349002  0.2966608764359028
  0.6669717294419966  0.5829800489900197  0.6298436853012965
  0.6660525405713549  0.5819964792492712  0.9641342252894987
  0.6666549906500130  0.3333098613000230  0.4851954878236459
 
  0.00000000E+00  0.00000000E+00  0.00000000E+00
  0.00000000E+00  0.00000000E+00  0.00000000E+00
  0.00000000E+00  0.00000000E+00  0.00000000E+00
  0.00000000E+00  0.00000000E+00  0.00000000E+00
  0.00000000E+00  0.00000000E+00  0.00000000E+00
  0.00000000E+00  0.00000000E+00  0.00000000E+00
  0.00000000E+00  0.00000000E+00  0.00000000E+00
  0.00000000E+00  0.00000000E+00  0.00000000E+00
  0.00000000E+00  0.00000000E+00  0.00000000E+00
  0.00000000E+00  0.00000000E+00  0.00000000E+00
  0.00000000E+00  0.00000000E+00  0.00000000E+00
  0.00000000E+00  0.00000000E+00  0.00000000E+00
  0.00000000E+00  0.00000000E+00  0.00000000E+00
  0.00000000E+00  0.00000000E+00  0.00000000E+00
  0.00000000E+00  0.00000000E+00  0.00000000E+00
  0.00000000E+00  0.00000000E+00  0.00000000E+00
  0.00000000E+00  0.00000000E+00  0.00000000E+00
  0.00000000E+00  0.00000000E+00  0.00000000E+00
  0.00000000E+00  0.00000000E+00  0.00000000E+00
  0.00000000E+00  0.00000000E+00  0.00000000E+00
  0.00000000E+00  0.00000000E+00  0.00000000E+00
  0.00000000E+00  0.00000000E+00  0.00000000E+00
  0.00000000E+00  0.00000000E+00  0.00000000E+00
  0.00000000E+00  0.00000000E+00  0.00000000E+00
  0.00000000E+00  0.00000000E+00  0.00000000E+00
  0.00000000E+00  0.00000000E+00  0.00000000E+00
  0.00000000E+00  0.00000000E+00  0.00000000E+00
  0.00000000E+00  0.00000000E+00  0.00000000E+00
  0.00000000E+00  0.00000000E+00  0.00000000E+00
  0.00000000E+00  0.00000000E+00  0.00000000E+00
  0.00000000E+00  0.00000000E+00  0.00000000E+00
  0.00000000E+00  0.00000000E+00  0.00000000E+00
  0.00000000E+00  0.00000000E+00  0.00000000E+00
  0.00000000E+00  0.00000000E+00  0.00000000E+00
  0.00000000E+00  0.00000000E+00  0.00000000E+00
  0.00000000E+00  0.00000000E+00  0.00000000E+00
  0.00000000E+00  0.00000000E+00  0.00000000E+00
  0.00000000E+00  0.00000000E+00  0.00000000E+00
  0.00000000E+00  0.00000000E+00  0.00000000E+00
  0.00000000E+00  0.00000000E+00  0.00000000E+00
  0.00000000E+00  0.00000000E+00  0.00000000E+00
  0.00000000E+00  0.00000000E+00  0.00000000E+00
  0.00000000E+00  0.00000000E+00  0.00000000E+00
  0.00000000E+00  0.00000000E+00  0.00000000E+00
  0.00000000E+00  0.00000000E+00  0.00000000E+00
  0.00000000E+00  0.00000000E+00  0.00000000E+00
  0.00000000E+00  0.00000000E+00  0.00000000E+00
  0.00000000E+00  0.00000000E+00  0.00000000E+00
  0.00000000E+00  0.00000000E+00  0.00000000E+00
  0.00000000E+00  0.00000000E+00  0.00000000E+00
  0.00000000E+00  0.00000000E+00  0.00000000E+00
  0.00000000E+00  0.00000000E+00  0.00000000E+00
  0.00000000E+00  0.00000000E+00  0.00000000E+00
  0.00000000E+00  0.00000000E+00  0.00000000E+00
  0.00000000E+00  0.00000000E+00  0.00000000E+00
  0.00000000E+00  0.00000000E+00  0.00000000E+00
  0.00000000E+00  0.00000000E+00  0.00000000E+00
  0.00000000E+00  0.00000000E+00  0.00000000E+00
  0.00000000E+00  0.00000000E+00  0.00000000E+00
  0.00000000E+00  0.00000000E+00  0.00000000E+00
  0.00000000E+00  0.00000000E+00  0.00000000E+00
  0.00000000E+00  0.00000000E+00  0.00000000E+00
  0.00000000E+00  0.00000000E+00  0.00000000E+00
  0.00000000E+00  0.00000000E+00  0.00000000E+00
  0.00000000E+00  0.00000000E+00  0.00000000E+00
  0.00000000E+00  0.00000000E+00  0.00000000E+00
  0.00000000E+00  0.00000000E+00  0.00000000E+00
  0.00000000E+00  0.00000000E+00  0.00000000E+00
  0.00000000E+00  0.00000000E+00  0.00000000E+00
  0.00000000E+00  0.00000000E+00  0.00000000E+00
  0.00000000E+00  0.00000000E+00  0.00000000E+00
  0.00000000E+00  0.00000000E+00  0.00000000E+00
  0.00000000E+00  0.00000000E+00  0.00000000E+00
  0.00000000E+00  0.00000000E+00  0.00000000E+00
  0.00000000E+00  0.00000000E+00  0.00000000E+00
  0.00000000E+00  0.00000000E+00  0.00000000E+00
  0.00000000E+00  0.00000000E+00  0.00000000E+00
  0.00000000E+00  0.00000000E+00  0.00000000E+00
  0.00000000E+00  0.00000000E+00  0.00000000E+00
  0.00000000E+00  0.00000000E+00  0.00000000E+00
  0.00000000E+00  0.00000000E+00  0.00000000E+00
  0.00000000E+00  0.00000000E+00  0.00000000E+00
  0.00000000E+00  0.00000000E+00  0.00000000E+00
  0.00000000E+00  0.00000000E+00  0.00000000E+00
  0.00000000E+00  0.00000000E+00  0.00000000E+00
  0.00000000E+00  0.00000000E+00  0.00000000E+00
  0.00000000E+00  0.00000000E+00  0.00000000E+00
  0.00000000E+00  0.00000000E+00  0.00000000E+00
  0.00000000E+00  0.00000000E+00  0.00000000E+00
  0.00000000E+00  0.00000000E+00  0.00000000E+00
  0.00000000E+00  0.00000000E+00  0.00000000E+00
  0.00000000E+00  0.00000000E+00  0.00000000E+00
  0.00000000E+00  0.00000000E+00  0.00000000E+00
  0.00000000E+00  0.00000000E+00  0.00000000E+00
  0.00000000E+00  0.00000000E+00  0.00000000E+00
  0.00000000E+00  0.00000000E+00  0.00000000E+00
  0.00000000E+00  0.00000000E+00  0.00000000E+00
  0.00000000E+00  0.00000000E+00  0.00000000E+00
  0.00000000E+00  0.00000000E+00  0.00000000E+00
  0.00000000E+00  0.00000000E+00  0.00000000E+00
  0.00000000E+00  0.00000000E+00  0.00000000E+00
  0.00000000E+00  0.00000000E+00  0.00000000E+00
  0.00000000E+00  0.00000000E+00  0.00000000E+00
  0.00000000E+00  0.00000000E+00  0.00000000E+00
  0.00000000E+00  0.00000000E+00  0.00000000E+00
  0.00000000E+00  0.00000000E+00  0.00000000E+00
  0.00000000E+00  0.00000000E+00  0.00000000E+00
  0.00000000E+00  0.00000000E+00  0.00000000E+00
  0.00000000E+00  0.00000000E+00  0.00000000E+00
  0.00000000E+00  0.00000000E+00  0.00000000E+00
  0.00000000E+00  0.00000000E+00  0.00000000E+00
  0.00000000E+00  0.00000000E+00  0.00000000E+00
  0.00000000E+00  0.00000000E+00  0.00000000E+00
  0.00000000E+00  0.00000000E+00  0.00000000E+00
  0.00000000E+00  0.00000000E+00  0.00000000E+00
  0.00000000E+00  0.00000000E+00  0.00000000E+00
  0.00000000E+00  0.00000000E+00  0.00000000E+00
  0.00000000E+00  0.00000000E+00  0.00000000E+00
  0.00000000E+00  0.00000000E+00  0.00000000E+00
  0.00000000E+00  0.00000000E+00  0.00000000E+00
  0.00000000E+00  0.00000000E+00  0.00000000E+00
  0.00000000E+00  0.00000000E+00  0.00000000E+00
  0.00000000E+00  0.00000000E+00  0.00000000E+00
  0.00000000E+00  0.00000000E+00  0.00000000E+00
  0.00000000E+00  0.00000000E+00  0.00000000E+00
  0.00000000E+00  0.00000000E+00  0.00000000E+00
  0.00000000E+00  0.00000000E+00  0.00000000E+00
  0.00000000E+00  0.00000000E+00  0.00000000E+00
  0.00000000E+00  0.00000000E+00  0.00000000E+00
  0.00000000E+00  0.00000000E+00  0.00000000E+00
  0.00000000E+00  0.00000000E+00  0.00000000E+00
  0.00000000E+00  0.00000000E+00  0.00000000E+00
  0.00000000E+00  0.00000000E+00  0.00000000E+00
  0.00000000E+00  0.00000000E+00  0.00000000E+00
  0.00000000E+00  0.00000000E+00  0.00000000E+00
  0.00000000E+00  0.00000000E+00  0.00000000E+00
  0.00000000E+00  0.00000000E+00  0.00000000E+00
  0.00000000E+00  0.00000000E+00  0.00000000E+00
  0.00000000E+00  0.00000000E+00  0.00000000E+00
  0.00000000E+00  0.00000000E+00  0.00000000E+00
  0.00000000E+00  0.00000000E+00  0.00000000E+00
  0.00000000E+00  0.00000000E+00  0.00000000E+00
  0.00000000E+00  0.00000000E+00  0.00000000E+00
  0.00000000E+00  0.00000000E+00  0.00000000E+00
  0.00000000E+00  0.00000000E+00  0.00000000E+00
  0.00000000E+00  0.00000000E+00  0.00000000E+00
  0.00000000E+00  0.00000000E+00  0.00000000E+00
  0.00000000E+00  0.00000000E+00  0.00000000E+00
  0.00000000E+00  0.00000000E+00  0.00000000E+00
  0.00000000E+00  0.00000000E+00  0.00000000E+00
  0.00000000E+00  0.00000000E+00  0.00000000E+00
  0.00000000E+00  0.00000000E+00  0.00000000E+00
  0.00000000E+00  0.00000000E+00  0.00000000E+00
  0.00000000E+00  0.00000000E+00  0.00000000E+00
  0.00000000E+00  0.00000000E+00  0.00000000E+00
  0.00000000E+00  0.00000000E+00  0.00000000E+00
  0.00000000E+00  0.00000000E+00  0.00000000E+00
  0.00000000E+00  0.00000000E+00  0.00000000E+00
  0.00000000E+00  0.00000000E+00  0.00000000E+00
  0.00000000E+00  0.00000000E+00  0.00000000E+00
  0.00000000E+00  0.00000000E+00  0.00000000E+00
  0.00000000E+00  0.00000000E+00  0.00000000E+00
  0.00000000E+00  0.00000000E+00  0.00000000E+00
  0.00000000E+00  0.00000000E+00  0.00000000E+00
  0.00000000E+00  0.00000000E+00  0.00000000E+00
  0.00000000E+00  0.00000000E+00  0.00000000E+00
  0.00000000E+00  0.00000000E+00  0.00000000E+00
  0.00000000E+00  0.00000000E+00  0.00000000E+00
  0.00000000E+00  0.00000000E+00  0.00000000E+00
  0.00000000E+00  0.00000000E+00  0.00000000E+00
  0.00000000E+00  0.00000000E+00  0.00000000E+00
  0.00000000E+00  0.00000000E+00  0.00000000E+00
  0.00000000E+00  0.00000000E+00  0.00000000E+00
  0.00000000E+00  0.00000000E+00  0.00000000E+00
  0.00000000E+00  0.00000000E+00  0.00000000E+00
  0.00000000E+00  0.00000000E+00  0.00000000E+00
  0.00000000E+00  0.00000000E+00  0.00000000E+00
  0.00000000E+00  0.00000000E+00  0.00000000E+00
  0.00000000E+00  0.00000000E+00  0.00000000E+00
  0.00000000E+00  0.00000000E+00  0.00000000E+00
  0.00000000E+00  0.00000000E+00  0.00000000E+00
  0.00000000E+00  0.00000000E+00  0.00000000E+00
  0.00000000E+00  0.00000000E+00  0.00000000E+00
  0.00000000E+00  0.00000000E+00  0.00000000E+00
  0.00000000E+00  0.00000000E+00  0.00000000E+00
  0.00000000E+00  0.00000000E+00  0.00000000E+00
  0.00000000E+00  0.00000000E+00  0.00000000E+00
  0.00000000E+00  0.00000000E+00  0.00000000E+00
  0.00000000E+00  0.00000000E+00  0.00000000E+00
  0.00000000E+00  0.00000000E+00  0.00000000E+00
  0.00000000E+00  0.00000000E+00  0.00000000E+00
  0.00000000E+00  0.00000000E+00  0.00000000E+00
