Generated from the PW2PY python module  
   1.00000000000000     
     3.2491743591586792    0.0000000000001041    0.0000000000000000
    -1.6245871790791593    2.8138675356223564    0.0000000000000000
     0.0000000000000000    0.0000000000000000    5.2054279946794830
   Zn   O 
     2     2
Direct
  0.6666669999999968  0.3333330000000032  0.5001447482482738
  0.3333330000000032  0.6666669999999968  0.0001447482482738
  0.6666669999999968  0.3333330000000032  0.8815552517517212
  0.3333330000000032  0.6666669999999968  0.3815552517517212
 
  0.00000000E+00  0.00000000E+00  0.00000000E+00
  0.00000000E+00  0.00000000E+00  0.00000000E+00
  0.00000000E+00  0.00000000E+00  0.00000000E+00
  0.00000000E+00  0.00000000E+00  0.00000000E+00
