Zn2 O2                                  
   1.00000000000000     
    12.9943542480000005    0.0000000000000000    0.0000000000000000
    -6.4971766471999999   11.2534400587000007    0.0000000000000000
     0.0000000000000000    0.0000000000000000   15.6120386123999992
   Zn   O    Nb
    95    95     1
Direct
  0.1666073716970754  0.0833926203029239  0.1659049199733403
  0.1667395511495882  0.0832604408504111  0.5004922701150483
  0.1665886841242940  0.0834113078757053  0.8335857437784597
  0.1663865312769310  0.3331855729560002  0.1662734621104090
  0.1660029172891458  0.3330066911476983  0.5002457350018481
  0.1666946883824753  0.3333328124360275  0.8336194170774246
  0.1666009029794283  0.5832033480489295  0.1659090140589765
  0.1667566025368555  0.5835063801617103  0.5004904214412947
  0.1665831862136286  0.5831679809342969  0.8336026857346980
  0.1667632897303390  0.8333807425063846  0.1659135961986232
  0.1675829909906920  0.8338052331628329  0.5004569009710851
  0.1667897030669043  0.8334002556935540  0.8338309088330285
  0.4166192574936153  0.0832367022696603  0.1659135961986232
  0.4161947668371671  0.0824170010093074  0.5004569009710851
  0.4165997443064460  0.0832102889330950  0.8338309088330285
  0.4157118544689311  0.3327895574140938  0.1661488716104056
  0.4102466270135584  0.3285084724005756  0.5024053293389379
  0.4182737718306384  0.3342118216685811  0.8326877459180381
  0.4157006607581335  0.5829197486852205  0.1661443758575070
  0.4102316538224583  0.5817605910001412  0.5024080810502489
  0.4182186992889864  0.5840717389295050  0.8327070096770083
  0.4166108457198918  0.8333891542801083  0.1659126966964208
  0.4161928626382500  0.8338071373617499  0.5004662390339888
  0.4165773234412375  0.8334226765587625  0.8338432204824636
  0.6667966519510705  0.0833990890205710  0.1659090140589765
  0.6664936198382897  0.0832433894631439  0.5004904214412947
  0.6668320190657031  0.0834168057863707  0.8336026857346980
  0.6670888316095942  0.3327847824303297  0.1661517093915730
  0.6682958773615841  0.3284846994688200  0.5024061030919318
  0.6659786134424494  0.3341731460898460  0.8327034342438380
  0.6666632842749500  0.5833367157250500  0.1676334413505919
  0.6666591788216517  0.5833408211783483  0.8344860893944508
  0.6670802513147795  0.8342993392418665  0.1661443758575070
  0.6682394089998588  0.8397683461775417  0.5024080810502489
  0.6659282610704950  0.8317813007110135  0.8327070096770083
  0.9168144270439998  0.0836134607230683  0.1662734621104090
  0.9169933088523018  0.0839970747108535  0.5002457350018481
  0.9166671875639726  0.0833053036175240  0.8336194170774246
  0.9168182747435413  0.3331817252564588  0.1662765790609878
  0.9170278716899412  0.3329721283100589  0.5002707036036269
  0.9166923075331795  0.3333076924668204  0.8336340873896798
  0.9172152175696703  0.5829111683904058  0.1661517093915730
  0.9215153005311728  0.5817041226384159  0.5024061030919318
  0.9158268539101541  0.5840213865575506  0.8327034342438380
  0.9172104425859062  0.8342881455310689  0.1661488716104056
  0.9214915275994315  0.8397533729864416  0.5024053293389379
  0.9157881783314189  0.8317262281693616  0.8326877459180381
  0.0832940995001724  0.1667058924998270  0.9999617891696144
  0.0833101526684173  0.1666898393315820  0.3329936311138941
  0.0834368727218708  0.1665631192781285  0.6670241313165832
  0.0832974805186346  0.4165842893618715  0.9999695732312722
  0.0833149659808921  0.4166254897673653  0.3329946774498240
  0.0834904580197603  0.4169145462771479  0.6670381095603238
  0.0831599831588295  0.6665506122658104  0.9996525275986351
  0.0844939537959302  0.6671203256697876  0.3325125262949290
  0.0827005191649635  0.6670403848749880  0.6678299795198114
  0.0831472388921553  0.9166083401235495  0.9996455135814999
  0.0844876353572713  0.9173820782939734  0.3325122678753261
  0.0826530251736205  0.9156473217072589  0.6678299571863624
  0.3333916598764505  0.1668527531078441  0.9996455135814999
  0.3326179217060266  0.1655123566427280  0.3325122678753261
  0.3343526782927411  0.1673469668263789  0.6678299571863624
  0.3335087835798771  0.4167575235645786  0.9995007338628796
  0.3323125750721295  0.4161579636153126  0.3330325497571284
  0.3337838640383644  0.4169299536584848  0.6680146107423173
  0.3333823408254515  0.6665518567354283  0.9996565419351576
  0.3326158849317144  0.6671242688253293  0.3325088668838878
  0.3343462417215723  0.6670785484779272  0.6678356586270281
  0.3333262464566075  0.9166737535433925  0.9999941394833001
  0.3333259298027867  0.9166740701972061  0.3325754464216915
  0.3332982879413205  0.9167017120586795  0.6671909245709136
  0.5834493877341896  0.1668400088411698  0.9996525275986351
  0.5828796743302124  0.1655060382040691  0.3325125262949290
  0.5829596151250120  0.1672994728350359  0.6678299795198114
  0.5833206767158595  0.4166187181676392  0.0008822738608758
  0.5818900455247221  0.4137828535398728  0.3298095781988847
  0.5903595273562302  0.4305713700658544  0.6630870498665559
  0.5833073600304270  0.6666926399695730  0.0008826091300340
  0.5818825129798204  0.6681174870201796  0.3298072683673113
  0.5902568457949163  0.6597431542050837  0.6631038375798169
  0.5834481432645717  0.9166176591745556  0.9996565419351576
  0.5828757311746707  0.9173841150682857  0.3325088668838878
  0.5829214515220728  0.9156537582784277  0.6678356586270281
  0.8334157106381285  0.1667025114813647  0.9999695732312722
  0.8333745102326346  0.1666850260191072  0.3329946774498240
  0.8330854537228521  0.1665095339802390  0.6670381095603238
  0.8332436812553011  0.4167563187446988  0.9995106602297645
  0.8338534015985121  0.4161465984014879  0.3330373570989535
  0.8331773061625051  0.4168226938374950  0.6680414751548820
  0.8333812818323607  0.6666793232841405  0.0008822738608758
  0.8362171464601343  0.6681099544752779  0.3298095781988847
  0.8194286299341456  0.6596404726437698  0.6630870498665559
  0.8332424764354214  0.9164912164201229  0.9995007338628796
  0.8338420363846875  0.9176874249278705  0.3330325497571284
  0.8330700463415152  0.9162161359616356  0.6680146107423173
  0.1665377435385503  0.0834622484614490  0.2934067418775575
  0.1669967626507657  0.0830032293492336  0.6272470073827089
  0.1666348981836202  0.0833650938163791  0.9606339679126087
  0.1666422788172365  0.3333143684016480  0.2937963620732817
  0.1674006403565526  0.3336951991300887  0.6269605990276717
  0.1667840031733237  0.3333841158444195  0.9606420380728773
  0.1665330600787479  0.5830667286781461  0.2934103657522211
  0.1670242661987686  0.5840153115019038  0.6272410264947001
  0.1666292029730326  0.5832527177315210  0.9606460263835712
  0.1666118056736826  0.8333071467664283  0.2933868988825922
  0.1665050203698577  0.8332665031032663  0.6270164958326451
  0.1666599795169030  0.8333273173597976  0.9607560001310297
  0.4166928532335717  0.0833881863263168  0.2933868988825922
  0.4167334968967408  0.0834949716301416  0.6270164958326451
  0.4166726826402024  0.0833400124830963  0.9607560001310297
  0.4163749420733773  0.3332003924057679  0.2943360929933166
  0.4191057935576523  0.3350709673390171  0.6277412559176536
  0.4174758123672251  0.3337926040709168  0.9601511933317995
  0.4163627042366904  0.5831671225823172  0.2943317544465603
  0.4190407841641492  0.5840996785483077  0.6277408358157761
  0.4174599554148742  0.5836872296907006  0.9601642899306637
  0.4166892429089384  0.8333107570910615  0.2933856231717323
  0.4167047641944871  0.8332952358055129  0.6270206415593946
  0.4166669545248579  0.8333330454751421  0.9607664922421708
  0.6669332713218539  0.0834669319212515  0.2934103657522211
  0.6659846884980962  0.0829757258012308  0.6272410264947001
  0.6667472822684790  0.0833707890269667  0.9606460263835712
  0.6668404789722741  0.3331968994050781  0.2943371079567107
  0.6660343754854593  0.3349698361833729  0.6277426160461945
  0.6663375709050576  0.3337713089499620  0.9601625949226291
  0.6666631358451925  0.5833368641548075  0.2982306515377920
  0.6666687143929035  0.5833312856070965  0.9611237922664961
  0.6668328774176828  0.8336372957633096  0.2943317544465603
  0.6659003214516923  0.8309592158358508  0.6277408358157761
  0.6663127703092994  0.8325400445851259  0.9601642899306637
  0.9166856315983519  0.0833577131827628  0.2937963620732817
  0.9163048008699113  0.0825993516434467  0.6269605990276717
  0.9166158841555805  0.0832159888266757  0.9606420380728773
  0.9166921606941624  0.3333078393058305  0.2937972263980203
  0.9163682271481868  0.3336317728518132  0.6269739433328955
  0.9166214870401876  0.3333785129598124  0.9606529696070348
  0.9168031005949220  0.5831595210277259  0.2943371079567107
  0.9150301638166271  0.5839656245145407  0.6277426160461945
  0.9162286910500380  0.5836624290949424  0.9601625949226291
  0.9167996075942321  0.8336250579266227  0.2943360929933166
  0.9149290326609828  0.8308942064423477  0.6277412559176536
  0.9162073959290832  0.8325241876327749  0.9601511933317995
  0.0832987770799250  0.1667012149200743  0.1272298628929972
  0.0835076387032683  0.1664923532967310  0.4603372792180758
  0.0833026075150708  0.1666973844849286  0.7937394688272549
  0.0833016219592176  0.4165986367533489  0.1272356262861409
  0.0835406139871881  0.4170598110738634  0.4603370918349580
  0.0833220243059898  0.4166140238653282  0.7937474319244707
  0.0832034720875633  0.6665917580724620  0.1270909893908261
  0.0837721130494313  0.6672020671784991  0.4598820332302428
  0.0830786118430130  0.6666353213769336  0.7942647946751078
  0.0832000758625915  0.9166172391312910  0.1270860855501248
  0.0837472539911833  0.9165942404034164  0.4598841213969697
  0.0830517750417153  0.9164378108018841  0.7942618475868112
  0.3333827608687089  0.1667999161374079  0.1270860855501248
  0.3334057595965907  0.1662527380088161  0.4598841213969697
  0.3335621891981230  0.1669482169582841  0.7942618475868112
  0.3333162985037410  0.4166618210708148  0.1271491599526434
  0.3345568335307021  0.4173024986067067  0.4605603072270120
  0.3335427029973886  0.4167878605203417  0.7942985165372617
  0.3333758068857665  0.6665986090435706  0.1270934535470542
  0.3334265208821968  0.6672090706408992  0.4598775967584460
  0.3335467129168383  0.6666599836559810  0.7942706619074759
  0.3333247560668264  0.9166752439331737  0.1271885902258280
  0.3333188850484918  0.9166811149515082  0.4597853832051107
  0.3333134950322690  0.9166865049677311  0.7939079962487134
  0.5834082419275380  0.1667965199124360  0.1270909893908261
  0.5827979328215009  0.1662278789505680  0.4598820332302428
  0.5833646786230664  0.1669213801569864  0.7942647946751078
  0.5835323004053570  0.4170577988040140  0.1288631016896377
  0.5840357422677850  0.4180110726307288  0.4627661304630873
  0.5843376195489162  0.4185894413314145  0.7904600160244502
  0.5835185110779348  0.6664814889220652  0.1288625817695755
  0.5839805159088350  0.6660194840911650  0.4627646704309623
  0.5842667927468328  0.6657332072531672  0.7904706266206236
  0.5834013909564294  0.9166241931142336  0.1270934535470542
  0.5827909293591008  0.9165734791178032  0.4598775967584460
  0.5833400163440190  0.9164532870831616  0.7942706619074759
  0.8334013632466510  0.1666983700407817  0.1272356262861409
  0.8329401889261366  0.1664593780128113  0.4603370918349580
  0.8333859761346718  0.1666779676940095  0.7937474319244707
  0.8333450965733554  0.4166549034266446  0.1271594990529594
  0.8327612650609811  0.4172387349390189  0.4605599628936686
  0.8332625433213258  0.4167374566786742  0.7943119592173400
  0.8329422011959861  0.6664676995946430  0.1288631016896377
  0.8319889273692711  0.6659642577322150  0.4627661304630873
  0.8314105586685855  0.6656623804510838  0.7904600160244502
  0.8333381789291853  0.9166837014962590  0.1271491599526434
  0.8326975013932933  0.9154431664692979  0.4605603072270120
  0.8332121394796583  0.9164572970026114  0.7942985165372617
  0.6666689904854910  0.5833310095145090  0.5047853943241812
 
  0.00000000E+00  0.00000000E+00  0.00000000E+00
  0.00000000E+00  0.00000000E+00  0.00000000E+00
  0.00000000E+00  0.00000000E+00  0.00000000E+00
  0.00000000E+00  0.00000000E+00  0.00000000E+00
  0.00000000E+00  0.00000000E+00  0.00000000E+00
  0.00000000E+00  0.00000000E+00  0.00000000E+00
  0.00000000E+00  0.00000000E+00  0.00000000E+00
  0.00000000E+00  0.00000000E+00  0.00000000E+00
  0.00000000E+00  0.00000000E+00  0.00000000E+00
  0.00000000E+00  0.00000000E+00  0.00000000E+00
  0.00000000E+00  0.00000000E+00  0.00000000E+00
  0.00000000E+00  0.00000000E+00  0.00000000E+00
  0.00000000E+00  0.00000000E+00  0.00000000E+00
  0.00000000E+00  0.00000000E+00  0.00000000E+00
  0.00000000E+00  0.00000000E+00  0.00000000E+00
  0.00000000E+00  0.00000000E+00  0.00000000E+00
  0.00000000E+00  0.00000000E+00  0.00000000E+00
  0.00000000E+00  0.00000000E+00  0.00000000E+00
  0.00000000E+00  0.00000000E+00  0.00000000E+00
  0.00000000E+00  0.00000000E+00  0.00000000E+00
  0.00000000E+00  0.00000000E+00  0.00000000E+00
  0.00000000E+00  0.00000000E+00  0.00000000E+00
  0.00000000E+00  0.00000000E+00  0.00000000E+00
  0.00000000E+00  0.00000000E+00  0.00000000E+00
  0.00000000E+00  0.00000000E+00  0.00000000E+00
  0.00000000E+00  0.00000000E+00  0.00000000E+00
  0.00000000E+00  0.00000000E+00  0.00000000E+00
  0.00000000E+00  0.00000000E+00  0.00000000E+00
  0.00000000E+00  0.00000000E+00  0.00000000E+00
  0.00000000E+00  0.00000000E+00  0.00000000E+00
  0.00000000E+00  0.00000000E+00  0.00000000E+00
  0.00000000E+00  0.00000000E+00  0.00000000E+00
  0.00000000E+00  0.00000000E+00  0.00000000E+00
  0.00000000E+00  0.00000000E+00  0.00000000E+00
  0.00000000E+00  0.00000000E+00  0.00000000E+00
  0.00000000E+00  0.00000000E+00  0.00000000E+00
  0.00000000E+00  0.00000000E+00  0.00000000E+00
  0.00000000E+00  0.00000000E+00  0.00000000E+00
  0.00000000E+00  0.00000000E+00  0.00000000E+00
  0.00000000E+00  0.00000000E+00  0.00000000E+00
  0.00000000E+00  0.00000000E+00  0.00000000E+00
  0.00000000E+00  0.00000000E+00  0.00000000E+00
  0.00000000E+00  0.00000000E+00  0.00000000E+00
  0.00000000E+00  0.00000000E+00  0.00000000E+00
  0.00000000E+00  0.00000000E+00  0.00000000E+00
  0.00000000E+00  0.00000000E+00  0.00000000E+00
  0.00000000E+00  0.00000000E+00  0.00000000E+00
  0.00000000E+00  0.00000000E+00  0.00000000E+00
  0.00000000E+00  0.00000000E+00  0.00000000E+00
  0.00000000E+00  0.00000000E+00  0.00000000E+00
  0.00000000E+00  0.00000000E+00  0.00000000E+00
  0.00000000E+00  0.00000000E+00  0.00000000E+00
  0.00000000E+00  0.00000000E+00  0.00000000E+00
  0.00000000E+00  0.00000000E+00  0.00000000E+00
  0.00000000E+00  0.00000000E+00  0.00000000E+00
  0.00000000E+00  0.00000000E+00  0.00000000E+00
  0.00000000E+00  0.00000000E+00  0.00000000E+00
  0.00000000E+00  0.00000000E+00  0.00000000E+00
  0.00000000E+00  0.00000000E+00  0.00000000E+00
  0.00000000E+00  0.00000000E+00  0.00000000E+00
  0.00000000E+00  0.00000000E+00  0.00000000E+00
  0.00000000E+00  0.00000000E+00  0.00000000E+00
  0.00000000E+00  0.00000000E+00  0.00000000E+00
  0.00000000E+00  0.00000000E+00  0.00000000E+00
  0.00000000E+00  0.00000000E+00  0.00000000E+00
  0.00000000E+00  0.00000000E+00  0.00000000E+00
  0.00000000E+00  0.00000000E+00  0.00000000E+00
  0.00000000E+00  0.00000000E+00  0.00000000E+00
  0.00000000E+00  0.00000000E+00  0.00000000E+00
  0.00000000E+00  0.00000000E+00  0.00000000E+00
  0.00000000E+00  0.00000000E+00  0.00000000E+00
  0.00000000E+00  0.00000000E+00  0.00000000E+00
  0.00000000E+00  0.00000000E+00  0.00000000E+00
  0.00000000E+00  0.00000000E+00  0.00000000E+00
  0.00000000E+00  0.00000000E+00  0.00000000E+00
  0.00000000E+00  0.00000000E+00  0.00000000E+00
  0.00000000E+00  0.00000000E+00  0.00000000E+00
  0.00000000E+00  0.00000000E+00  0.00000000E+00
  0.00000000E+00  0.00000000E+00  0.00000000E+00
  0.00000000E+00  0.00000000E+00  0.00000000E+00
  0.00000000E+00  0.00000000E+00  0.00000000E+00
  0.00000000E+00  0.00000000E+00  0.00000000E+00
  0.00000000E+00  0.00000000E+00  0.00000000E+00
  0.00000000E+00  0.00000000E+00  0.00000000E+00
  0.00000000E+00  0.00000000E+00  0.00000000E+00
  0.00000000E+00  0.00000000E+00  0.00000000E+00
  0.00000000E+00  0.00000000E+00  0.00000000E+00
  0.00000000E+00  0.00000000E+00  0.00000000E+00
  0.00000000E+00  0.00000000E+00  0.00000000E+00
  0.00000000E+00  0.00000000E+00  0.00000000E+00
  0.00000000E+00  0.00000000E+00  0.00000000E+00
  0.00000000E+00  0.00000000E+00  0.00000000E+00
  0.00000000E+00  0.00000000E+00  0.00000000E+00
  0.00000000E+00  0.00000000E+00  0.00000000E+00
  0.00000000E+00  0.00000000E+00  0.00000000E+00
  0.00000000E+00  0.00000000E+00  0.00000000E+00
  0.00000000E+00  0.00000000E+00  0.00000000E+00
  0.00000000E+00  0.00000000E+00  0.00000000E+00
  0.00000000E+00  0.00000000E+00  0.00000000E+00
  0.00000000E+00  0.00000000E+00  0.00000000E+00
  0.00000000E+00  0.00000000E+00  0.00000000E+00
  0.00000000E+00  0.00000000E+00  0.00000000E+00
  0.00000000E+00  0.00000000E+00  0.00000000E+00
  0.00000000E+00  0.00000000E+00  0.00000000E+00
  0.00000000E+00  0.00000000E+00  0.00000000E+00
  0.00000000E+00  0.00000000E+00  0.00000000E+00
  0.00000000E+00  0.00000000E+00  0.00000000E+00
  0.00000000E+00  0.00000000E+00  0.00000000E+00
  0.00000000E+00  0.00000000E+00  0.00000000E+00
  0.00000000E+00  0.00000000E+00  0.00000000E+00
  0.00000000E+00  0.00000000E+00  0.00000000E+00
  0.00000000E+00  0.00000000E+00  0.00000000E+00
  0.00000000E+00  0.00000000E+00  0.00000000E+00
  0.00000000E+00  0.00000000E+00  0.00000000E+00
  0.00000000E+00  0.00000000E+00  0.00000000E+00
  0.00000000E+00  0.00000000E+00  0.00000000E+00
  0.00000000E+00  0.00000000E+00  0.00000000E+00
  0.00000000E+00  0.00000000E+00  0.00000000E+00
  0.00000000E+00  0.00000000E+00  0.00000000E+00
  0.00000000E+00  0.00000000E+00  0.00000000E+00
  0.00000000E+00  0.00000000E+00  0.00000000E+00
  0.00000000E+00  0.00000000E+00  0.00000000E+00
  0.00000000E+00  0.00000000E+00  0.00000000E+00
  0.00000000E+00  0.00000000E+00  0.00000000E+00
  0.00000000E+00  0.00000000E+00  0.00000000E+00
  0.00000000E+00  0.00000000E+00  0.00000000E+00
  0.00000000E+00  0.00000000E+00  0.00000000E+00
  0.00000000E+00  0.00000000E+00  0.00000000E+00
  0.00000000E+00  0.00000000E+00  0.00000000E+00
  0.00000000E+00  0.00000000E+00  0.00000000E+00
  0.00000000E+00  0.00000000E+00  0.00000000E+00
  0.00000000E+00  0.00000000E+00  0.00000000E+00
  0.00000000E+00  0.00000000E+00  0.00000000E+00
  0.00000000E+00  0.00000000E+00  0.00000000E+00
  0.00000000E+00  0.00000000E+00  0.00000000E+00
  0.00000000E+00  0.00000000E+00  0.00000000E+00
  0.00000000E+00  0.00000000E+00  0.00000000E+00
  0.00000000E+00  0.00000000E+00  0.00000000E+00
  0.00000000E+00  0.00000000E+00  0.00000000E+00
  0.00000000E+00  0.00000000E+00  0.00000000E+00
  0.00000000E+00  0.00000000E+00  0.00000000E+00
  0.00000000E+00  0.00000000E+00  0.00000000E+00
  0.00000000E+00  0.00000000E+00  0.00000000E+00
  0.00000000E+00  0.00000000E+00  0.00000000E+00
  0.00000000E+00  0.00000000E+00  0.00000000E+00
  0.00000000E+00  0.00000000E+00  0.00000000E+00
  0.00000000E+00  0.00000000E+00  0.00000000E+00
  0.00000000E+00  0.00000000E+00  0.00000000E+00
  0.00000000E+00  0.00000000E+00  0.00000000E+00
  0.00000000E+00  0.00000000E+00  0.00000000E+00
  0.00000000E+00  0.00000000E+00  0.00000000E+00
  0.00000000E+00  0.00000000E+00  0.00000000E+00
  0.00000000E+00  0.00000000E+00  0.00000000E+00
  0.00000000E+00  0.00000000E+00  0.00000000E+00
  0.00000000E+00  0.00000000E+00  0.00000000E+00
  0.00000000E+00  0.00000000E+00  0.00000000E+00
  0.00000000E+00  0.00000000E+00  0.00000000E+00
  0.00000000E+00  0.00000000E+00  0.00000000E+00
  0.00000000E+00  0.00000000E+00  0.00000000E+00
  0.00000000E+00  0.00000000E+00  0.00000000E+00
  0.00000000E+00  0.00000000E+00  0.00000000E+00
  0.00000000E+00  0.00000000E+00  0.00000000E+00
  0.00000000E+00  0.00000000E+00  0.00000000E+00
  0.00000000E+00  0.00000000E+00  0.00000000E+00
  0.00000000E+00  0.00000000E+00  0.00000000E+00
  0.00000000E+00  0.00000000E+00  0.00000000E+00
  0.00000000E+00  0.00000000E+00  0.00000000E+00
  0.00000000E+00  0.00000000E+00  0.00000000E+00
  0.00000000E+00  0.00000000E+00  0.00000000E+00
  0.00000000E+00  0.00000000E+00  0.00000000E+00
  0.00000000E+00  0.00000000E+00  0.00000000E+00
  0.00000000E+00  0.00000000E+00  0.00000000E+00
  0.00000000E+00  0.00000000E+00  0.00000000E+00
  0.00000000E+00  0.00000000E+00  0.00000000E+00
  0.00000000E+00  0.00000000E+00  0.00000000E+00
  0.00000000E+00  0.00000000E+00  0.00000000E+00
  0.00000000E+00  0.00000000E+00  0.00000000E+00
  0.00000000E+00  0.00000000E+00  0.00000000E+00
  0.00000000E+00  0.00000000E+00  0.00000000E+00
  0.00000000E+00  0.00000000E+00  0.00000000E+00
  0.00000000E+00  0.00000000E+00  0.00000000E+00
  0.00000000E+00  0.00000000E+00  0.00000000E+00
  0.00000000E+00  0.00000000E+00  0.00000000E+00
  0.00000000E+00  0.00000000E+00  0.00000000E+00
  0.00000000E+00  0.00000000E+00  0.00000000E+00
  0.00000000E+00  0.00000000E+00  0.00000000E+00
  0.00000000E+00  0.00000000E+00  0.00000000E+00
  0.00000000E+00  0.00000000E+00  0.00000000E+00
  0.00000000E+00  0.00000000E+00  0.00000000E+00
  0.00000000E+00  0.00000000E+00  0.00000000E+00
  0.00000000E+00  0.00000000E+00  0.00000000E+00
