pymatgen with grid density = 659 / number of atoms
0
Gamma
1 1 1
0 0 0
