Generated from the PW2PY python module  
   1.00000000000000     
    12.9943542579999995    0.0000000000000000    0.0000000000000000
    -6.4971771289999998   11.2534408930000005    0.0000000000000000
     0.0000000000000000    0.0000000000000000   15.6120386070000006
   Zn   O    Nb
    95    95     1
Direct
  0.0833467086651464  0.1666532913348535 -0.0004958964897547
  0.0833945746737370  0.1666054253262630  0.6663617435132910
  0.0832989871099188  0.1667010128900812  0.3326063846605754
  0.0833945746737370  0.4167893993474662  0.6663617435132910
  0.0833467086651464  0.4166936673302852 -0.0004958964897547
  0.0832989871099188  0.4165982242198299  0.3326063846605754
  0.0833419901313561  0.6666897505884142 -0.0006607090800648
  0.0845401775245185  0.6670774403079134  0.3326153691303445
  0.0825900094671502  0.6669909910735606  0.6670954541839984
  0.0825900094671502  0.9155992683935819  0.6670954541839984
  0.0833419901313561  0.9166524895429342 -0.0006607090800648
  0.0845401775245185  0.9174629872165972  0.3326153691303445
  0.1666332010253511  0.0833667989746491  0.8329339103571364
  0.1665480594137499  0.0834519405862501  0.4999907902070149
  0.1666311453937269  0.0833688546062732  0.1658506314437009
  0.1662871358020917  0.3331434429010498  0.8332375556528998
  0.1663206896164354  0.3331602198082216  0.1659644893030066
  0.1659830158405484  0.3329913829202780  0.4997594697831245
  0.1666311453937269  0.5832620407874612  0.1658506314437009
  0.1665480594137499  0.5830958688275080  0.4999907902070149
  0.1666332010253511  0.5832661520507099  0.8329339103571364
  0.1668029102909504  0.8334013301454791  0.1658817160487771
  0.1678517012714562  0.8339257256357321  0.4998761143470284
  0.1668499355042102  0.8334248427521090  0.8330830403467054
  0.3333475104570660  0.1666580098686440 -0.0006607090800648
  0.3325370127834026  0.1654598224754816  0.3326153691303445
  0.3344007316064179  0.1674099905328498  0.6670954541839984
  0.3332532542567557  0.4166267521283737  0.6690486639112060
  0.3334753973189600  0.4167378236594761 -0.0007112030231782
  0.3323074494069350  0.4161538497034638  0.3330989538785505
  0.3344007316064179  0.6669909910735606  0.6670954541839984
  0.3325370127834026  0.6670774403079134  0.3326153691303445
  0.3333475104570660  0.6666897505884142 -0.0006607090800648
  0.3333332500000026  0.9166667499999974  0.6663215927721252
  0.3333332500000026  0.9166667499999974  0.3323896905547179
  0.3333332500000026  0.9166667499999974 -0.0005339097642814
  0.4165986698545210  0.0831970897090496  0.1658817160487771
  0.4160742743642681  0.0821482987285438  0.4998761143470284
  0.4165751572478910  0.0831500644957897  0.8330830403467054
  0.4096368108644282  0.3276221456681161  0.5028869623760381
  0.4152097821634365  0.3325073306501149  0.1662386788931179
  0.4179873772010984  0.3337997959326423  0.8333537394464136
  0.4096368108644282  0.5820144151963197  0.5028869623760381
  0.4152097821634365  0.5827022015133293  0.1662386788931179
  0.4179873772010984  0.5841873312684638  0.8333537394464136
  0.4165751572478910  0.8334248427521090  0.8330830403467054
  0.4160742743642681  0.8339257256357321  0.4998761143470284
  0.4165986698545210  0.8334013301454791  0.1658817160487771
  0.5833102494115858  0.1666580098686440 -0.0006607090800648
  0.5829225596920866  0.1654598224754816  0.3326153691303445
  0.5830090089264394  0.1674099905328498  0.6670954541839984
  0.5811533427145490  0.4123069354290908  0.3306286215939362
  0.5832665043579524  0.4165332587158972  0.0026798577791915
  0.5897822312743000  0.4295647125485919  0.6658196661452986
  0.5897822312743000  0.6602177687257000  0.6658196661452986
  0.5811533427145490  0.6688466572854510  0.3306286215939362
  0.5832665043579524  0.6667334956420476  0.0026798577791915
  0.5830090089264394  0.9155992683935819  0.6670954541839984
  0.5829225596920866  0.9174629872165972  0.3326153691303445
  0.5833102494115858  0.9166524895429342 -0.0006607090800648
  0.6667379592125388  0.0833688546062732  0.1658506314437009
  0.6669041311724920  0.0834519405862501  0.4999907902070149
  0.6667338479492901  0.0833667989746491  0.8329339103571364
  0.6658126687315362  0.3337997959326423  0.8333537394464136
  0.6679855848036803  0.3276221456681161  0.5028869623760381
  0.6672977984866707  0.3325073306501149  0.1662386788931179
  0.6666667499999974  0.5833332500000026  0.8368899067955555
  0.6666667499999974  0.5833332500000026  0.1698474861784690
  0.6658126687315362  0.8320126227989019  0.8333537394464136
  0.6679855848036803  0.8403631891355717  0.5028869623760381
  0.6672977984866707  0.8347902178365635  0.1662386788931179
  0.8334017757801702  0.1667010128900812  0.3326063846605754
  0.8333063326697152  0.1666532913348535 -0.0004958964897547
  0.8332106006525335  0.1666054253262630  0.6663617435132910
  0.8333732478716257  0.4166267521283737  0.6690486639112060
  0.8338461502965366  0.4161538497034638  0.3330989538785505
  0.8332621763405239  0.4167378236594761 -0.0007112030231782
  0.8376930645709093  0.6688466572854510  0.3306286215939362
  0.8334667412841027  0.6667334956420476  0.0026798577791915
  0.8204352874514084  0.6602177687257000  0.6658196661452986
  0.8338461502965366  0.9176925505930646  0.3330989538785505
  0.8333732478716257  0.9167467457432448  0.6690486639112060
  0.8332621763405239  0.9165246026810400 -0.0007112030231782
  0.9168565570989501  0.0837128641979083  0.8332375556528998
  0.9170086170797223  0.0840169841594516  0.4997594697831245
  0.9168397801917786  0.0836793103835647  0.1659644893030066
  0.9170086170797223  0.3329913829202780  0.4997594697831245
  0.9168397801917786  0.3331602198082216  0.1659644893030066
  0.9168565570989501  0.3331434429010498  0.8332375556528998
  0.9223778543318841  0.5820144151963197  0.5028869623760381
  0.9162002040673581  0.5841873312684638  0.8333537394464136
  0.9174926693498853  0.5827022015133293  0.1662386788931179
  0.9223778543318841  0.8403631891355717  0.5028869623760381
  0.9162002040673581  0.8320126227989019  0.8333537394464136
  0.9174926693498853  0.8347902178365635  0.1662386788931179
  0.0833129471795900  0.1666870528204101  0.7930481581549466
  0.0834026022987554  0.1665973977012446  0.4599639283682643
  0.0833402640455814  0.1666597359544186  0.1267404221012194
  0.0833402640455814  0.4166807780911551  0.1267404221012194
  0.0834026022987554  0.4168054545975031  0.4599639283682643
  0.0833129471795900  0.4166261443591721  0.7930481581549466
  0.0843531162755734  0.6672245767487077  0.4599128435102368
  0.0828246216513267  0.6665229386239736  0.7935687810919374
  0.0833433731549231  0.6666856484398849  0.1266962294373792
  0.0828246216513267  0.9163019330273454  0.7935687810919374
  0.0843531162755734  0.9171287895268578  0.4599128435102368
  0.0833433731549231  0.9166579747150301  0.1266962294373792
  0.1666657798245134  0.0833342201754866  0.9599316193944208
  0.1669895588901986  0.0830104411098015  0.6268276078947740
  0.1665493610251890  0.0834506389748110  0.2932098013102582
  0.1666479897394506  0.3333238698697291  0.2934811436241817
  0.1676512399928936  0.3338254949964508  0.6266089185715489
  0.1667628343307705  0.3333812921653891  0.9601547783654419
  0.1666657798245134  0.5833313096490343  0.9599316193944208
  0.1669895588901986  0.5839788677804046  0.6268276078947740
  0.1665493610251890  0.5830984720503859  0.2932098013102582
  0.1666949794796994  0.8333473647398530  0.9599881289740757
  0.1663187680324658  0.8331592590162368  0.6264681817871334
  0.1665936369133865  0.8332966934566969  0.2932812157194651
  0.3333420252849695  0.1666566268450769  0.1266962294373792
  0.3336980669726546  0.1671753783486733  0.7935687810919374
  0.3328712104731418  0.1656468837244266  0.4599128435102368
  0.3336783042962172  0.4168392771481048  0.7949571158640273
  0.3346723745640826  0.4173363122820373  0.4608353897402719
  0.3332030597766829  0.4166016548883376  0.1268200286173249
  0.3336980669726546  0.6665229386239736  0.7935687810919374
  0.3328712104731418  0.6672245767487077  0.4599128435102368
  0.3333420252849695  0.6666856484398849  0.1266962294373792
  0.3333332500000026  0.9166667499999974  0.7930014620291219
  0.3333332500000026  0.9166667499999974  0.4594485165787711
  0.3333332500000026  0.9166667499999974  0.1266865749560998
  0.4167033065433028  0.0834063630866134  0.2932812157194651
  0.4166526352601463  0.0833050205203006  0.9599881289740757
  0.4168407409837632  0.0836812319675342  0.6264681817871334
  0.4178094202917557  0.3338759680090876  0.9605542003976436
  0.4199515686216110  0.3361113856444552  0.6283865447265555
  0.4158222705621636  0.3328580034213739  0.2941455320131090
  0.4178094202917557  0.5839332022826756  0.9605542003976436
  0.4199515686216110  0.5838399329771632  0.6283865447265555
  0.4158222705621636  0.5829640171407976  0.2941455320131090
  0.4166526352601463  0.8333473647398530  0.9599881289740757
  0.4168407409837632  0.8331592590162368  0.6264681817871334
  0.4167033065433028  0.8332966934566969  0.2932812157194651
  0.5834770613760264  0.1671753783486733  0.7935687810919374
  0.5827754232512923  0.1656468837244266  0.4599128435102368
  0.5833143515601151  0.1666566268450769  0.1266962294373792
  0.5844555247766814  0.4189112995533549  0.7921134757980889
  0.5809240208456763  0.4118482916913452  0.4620959264430236
  0.5836518398996748  0.4173039297993421  0.1301468997596256
  0.5836518398996748  0.6663481601003252  0.1301468997596256
  0.5809240208456763  0.6690759791543237  0.4620959264430236
  0.5844555247766814  0.6655444752233186  0.7921134757980889
  0.5834770613760264  0.9163019330273454  0.7935687810919374
  0.5827754232512923  0.9171287895268578  0.4599128435102368
  0.5833143515601151  0.9166579747150301  0.1266962294373792
  0.6666686903509657  0.0833342201754866  0.9599316193944208
  0.6660211322195954  0.0830104411098015  0.6268276078947740
  0.6669015279496141  0.0834506389748110  0.2932098013102582
  0.6660667977173244  0.3338759680090876  0.9605542003976436
  0.6661600670228368  0.3361113856444552  0.6283865447265555
  0.6670359828592024  0.3328580034213739  0.2941455320131090
  0.6666667499999974  0.5833332500000026  0.3009603874979082
  0.6666667499999974  0.5833332500000026  0.9629434573057035
  0.6660667977173244  0.8321905797082447  0.9605542003976436
  0.6661600670228368  0.8300484313783888  0.6283865447265555
  0.6670359828592024  0.8341777294378361  0.2941455320131090
  0.8333738556408278  0.1666870528204101  0.7930481581549466
  0.8331945454024969  0.1665973977012446  0.4599639283682643
  0.8333192219088451  0.1666597359544186  0.1267404221012194
  0.8331607228518956  0.4168392771481048  0.7949571158640273
  0.8326636877179628  0.4173363122820373  0.4608353897402719
  0.8333983451116624  0.4166016548883376  0.1268200286173249
  0.8310887004466453  0.6655444752233186  0.7921134757980889
  0.8381517083086546  0.6690759791543237  0.4620959264430236
  0.8326960702006576  0.6663481601003252  0.1301468997596256
  0.8326636877179628  0.9153276254359176  0.4608353897402719
  0.8333983451116624  0.9167969402233170  0.1268200286173249
  0.8331607228518956  0.9163216957037826  0.7949571158640273
  0.9166187078346104  0.0832371656692295  0.9601547783654419
  0.9161745050035495  0.0823487600071064  0.6266089185715489
  0.9166761301302710  0.0833520102605494  0.2934811436241817
  0.9166187078346104  0.3333812921653891  0.9601547783654419
  0.9161745050035495  0.3338254949964508  0.6266089185715489
  0.9166761301302710  0.3333238698697291  0.2934811436241817
  0.9161240319909126  0.5839332022826756  0.9605542003976436
  0.9138886143555447  0.5838399329771632  0.6283865447265555
  0.9171419965786258  0.5829640171407976  0.2941455320131090
  0.9161240319909126  0.8321905797082447  0.9605542003976436
  0.9138886143555447  0.8300484313783888  0.6283865447265555
  0.9171419965786258  0.8341777294378361  0.2941455320131090
  0.6666667499999974  0.5833332500000026  0.5036135914958203
 
  0.00000000E+00  0.00000000E+00  0.00000000E+00
  0.00000000E+00  0.00000000E+00  0.00000000E+00
  0.00000000E+00  0.00000000E+00  0.00000000E+00
  0.00000000E+00  0.00000000E+00  0.00000000E+00
  0.00000000E+00  0.00000000E+00  0.00000000E+00
  0.00000000E+00  0.00000000E+00  0.00000000E+00
  0.00000000E+00  0.00000000E+00  0.00000000E+00
  0.00000000E+00  0.00000000E+00  0.00000000E+00
  0.00000000E+00  0.00000000E+00  0.00000000E+00
  0.00000000E+00  0.00000000E+00  0.00000000E+00
  0.00000000E+00  0.00000000E+00  0.00000000E+00
  0.00000000E+00  0.00000000E+00  0.00000000E+00
  0.00000000E+00  0.00000000E+00  0.00000000E+00
  0.00000000E+00  0.00000000E+00  0.00000000E+00
  0.00000000E+00  0.00000000E+00  0.00000000E+00
  0.00000000E+00  0.00000000E+00  0.00000000E+00
  0.00000000E+00  0.00000000E+00  0.00000000E+00
  0.00000000E+00  0.00000000E+00  0.00000000E+00
  0.00000000E+00  0.00000000E+00  0.00000000E+00
  0.00000000E+00  0.00000000E+00  0.00000000E+00
  0.00000000E+00  0.00000000E+00  0.00000000E+00
  0.00000000E+00  0.00000000E+00  0.00000000E+00
  0.00000000E+00  0.00000000E+00  0.00000000E+00
  0.00000000E+00  0.00000000E+00  0.00000000E+00
  0.00000000E+00  0.00000000E+00  0.00000000E+00
  0.00000000E+00  0.00000000E+00  0.00000000E+00
  0.00000000E+00  0.00000000E+00  0.00000000E+00
  0.00000000E+00  0.00000000E+00  0.00000000E+00
  0.00000000E+00  0.00000000E+00  0.00000000E+00
  0.00000000E+00  0.00000000E+00  0.00000000E+00
  0.00000000E+00  0.00000000E+00  0.00000000E+00
  0.00000000E+00  0.00000000E+00  0.00000000E+00
  0.00000000E+00  0.00000000E+00  0.00000000E+00
  0.00000000E+00  0.00000000E+00  0.00000000E+00
  0.00000000E+00  0.00000000E+00  0.00000000E+00
  0.00000000E+00  0.00000000E+00  0.00000000E+00
  0.00000000E+00  0.00000000E+00  0.00000000E+00
  0.00000000E+00  0.00000000E+00  0.00000000E+00
  0.00000000E+00  0.00000000E+00  0.00000000E+00
  0.00000000E+00  0.00000000E+00  0.00000000E+00
  0.00000000E+00  0.00000000E+00  0.00000000E+00
  0.00000000E+00  0.00000000E+00  0.00000000E+00
  0.00000000E+00  0.00000000E+00  0.00000000E+00
  0.00000000E+00  0.00000000E+00  0.00000000E+00
  0.00000000E+00  0.00000000E+00  0.00000000E+00
  0.00000000E+00  0.00000000E+00  0.00000000E+00
  0.00000000E+00  0.00000000E+00  0.00000000E+00
  0.00000000E+00  0.00000000E+00  0.00000000E+00
  0.00000000E+00  0.00000000E+00  0.00000000E+00
  0.00000000E+00  0.00000000E+00  0.00000000E+00
  0.00000000E+00  0.00000000E+00  0.00000000E+00
  0.00000000E+00  0.00000000E+00  0.00000000E+00
  0.00000000E+00  0.00000000E+00  0.00000000E+00
  0.00000000E+00  0.00000000E+00  0.00000000E+00
  0.00000000E+00  0.00000000E+00  0.00000000E+00
  0.00000000E+00  0.00000000E+00  0.00000000E+00
  0.00000000E+00  0.00000000E+00  0.00000000E+00
  0.00000000E+00  0.00000000E+00  0.00000000E+00
  0.00000000E+00  0.00000000E+00  0.00000000E+00
  0.00000000E+00  0.00000000E+00  0.00000000E+00
  0.00000000E+00  0.00000000E+00  0.00000000E+00
  0.00000000E+00  0.00000000E+00  0.00000000E+00
  0.00000000E+00  0.00000000E+00  0.00000000E+00
  0.00000000E+00  0.00000000E+00  0.00000000E+00
  0.00000000E+00  0.00000000E+00  0.00000000E+00
  0.00000000E+00  0.00000000E+00  0.00000000E+00
  0.00000000E+00  0.00000000E+00  0.00000000E+00
  0.00000000E+00  0.00000000E+00  0.00000000E+00
  0.00000000E+00  0.00000000E+00  0.00000000E+00
  0.00000000E+00  0.00000000E+00  0.00000000E+00
  0.00000000E+00  0.00000000E+00  0.00000000E+00
  0.00000000E+00  0.00000000E+00  0.00000000E+00
  0.00000000E+00  0.00000000E+00  0.00000000E+00
  0.00000000E+00  0.00000000E+00  0.00000000E+00
  0.00000000E+00  0.00000000E+00  0.00000000E+00
  0.00000000E+00  0.00000000E+00  0.00000000E+00
  0.00000000E+00  0.00000000E+00  0.00000000E+00
  0.00000000E+00  0.00000000E+00  0.00000000E+00
  0.00000000E+00  0.00000000E+00  0.00000000E+00
  0.00000000E+00  0.00000000E+00  0.00000000E+00
  0.00000000E+00  0.00000000E+00  0.00000000E+00
  0.00000000E+00  0.00000000E+00  0.00000000E+00
  0.00000000E+00  0.00000000E+00  0.00000000E+00
  0.00000000E+00  0.00000000E+00  0.00000000E+00
  0.00000000E+00  0.00000000E+00  0.00000000E+00
  0.00000000E+00  0.00000000E+00  0.00000000E+00
  0.00000000E+00  0.00000000E+00  0.00000000E+00
  0.00000000E+00  0.00000000E+00  0.00000000E+00
  0.00000000E+00  0.00000000E+00  0.00000000E+00
  0.00000000E+00  0.00000000E+00  0.00000000E+00
  0.00000000E+00  0.00000000E+00  0.00000000E+00
  0.00000000E+00  0.00000000E+00  0.00000000E+00
  0.00000000E+00  0.00000000E+00  0.00000000E+00
  0.00000000E+00  0.00000000E+00  0.00000000E+00
  0.00000000E+00  0.00000000E+00  0.00000000E+00
  0.00000000E+00  0.00000000E+00  0.00000000E+00
  0.00000000E+00  0.00000000E+00  0.00000000E+00
  0.00000000E+00  0.00000000E+00  0.00000000E+00
  0.00000000E+00  0.00000000E+00  0.00000000E+00
  0.00000000E+00  0.00000000E+00  0.00000000E+00
  0.00000000E+00  0.00000000E+00  0.00000000E+00
  0.00000000E+00  0.00000000E+00  0.00000000E+00
  0.00000000E+00  0.00000000E+00  0.00000000E+00
  0.00000000E+00  0.00000000E+00  0.00000000E+00
  0.00000000E+00  0.00000000E+00  0.00000000E+00
  0.00000000E+00  0.00000000E+00  0.00000000E+00
  0.00000000E+00  0.00000000E+00  0.00000000E+00
  0.00000000E+00  0.00000000E+00  0.00000000E+00
  0.00000000E+00  0.00000000E+00  0.00000000E+00
  0.00000000E+00  0.00000000E+00  0.00000000E+00
  0.00000000E+00  0.00000000E+00  0.00000000E+00
  0.00000000E+00  0.00000000E+00  0.00000000E+00
  0.00000000E+00  0.00000000E+00  0.00000000E+00
  0.00000000E+00  0.00000000E+00  0.00000000E+00
  0.00000000E+00  0.00000000E+00  0.00000000E+00
  0.00000000E+00  0.00000000E+00  0.00000000E+00
  0.00000000E+00  0.00000000E+00  0.00000000E+00
  0.00000000E+00  0.00000000E+00  0.00000000E+00
  0.00000000E+00  0.00000000E+00  0.00000000E+00
  0.00000000E+00  0.00000000E+00  0.00000000E+00
  0.00000000E+00  0.00000000E+00  0.00000000E+00
  0.00000000E+00  0.00000000E+00  0.00000000E+00
  0.00000000E+00  0.00000000E+00  0.00000000E+00
  0.00000000E+00  0.00000000E+00  0.00000000E+00
  0.00000000E+00  0.00000000E+00  0.00000000E+00
  0.00000000E+00  0.00000000E+00  0.00000000E+00
  0.00000000E+00  0.00000000E+00  0.00000000E+00
  0.00000000E+00  0.00000000E+00  0.00000000E+00
  0.00000000E+00  0.00000000E+00  0.00000000E+00
  0.00000000E+00  0.00000000E+00  0.00000000E+00
  0.00000000E+00  0.00000000E+00  0.00000000E+00
  0.00000000E+00  0.00000000E+00  0.00000000E+00
  0.00000000E+00  0.00000000E+00  0.00000000E+00
  0.00000000E+00  0.00000000E+00  0.00000000E+00
  0.00000000E+00  0.00000000E+00  0.00000000E+00
  0.00000000E+00  0.00000000E+00  0.00000000E+00
  0.00000000E+00  0.00000000E+00  0.00000000E+00
  0.00000000E+00  0.00000000E+00  0.00000000E+00
  0.00000000E+00  0.00000000E+00  0.00000000E+00
  0.00000000E+00  0.00000000E+00  0.00000000E+00
  0.00000000E+00  0.00000000E+00  0.00000000E+00
  0.00000000E+00  0.00000000E+00  0.00000000E+00
  0.00000000E+00  0.00000000E+00  0.00000000E+00
  0.00000000E+00  0.00000000E+00  0.00000000E+00
  0.00000000E+00  0.00000000E+00  0.00000000E+00
  0.00000000E+00  0.00000000E+00  0.00000000E+00
  0.00000000E+00  0.00000000E+00  0.00000000E+00
  0.00000000E+00  0.00000000E+00  0.00000000E+00
  0.00000000E+00  0.00000000E+00  0.00000000E+00
  0.00000000E+00  0.00000000E+00  0.00000000E+00
  0.00000000E+00  0.00000000E+00  0.00000000E+00
  0.00000000E+00  0.00000000E+00  0.00000000E+00
  0.00000000E+00  0.00000000E+00  0.00000000E+00
  0.00000000E+00  0.00000000E+00  0.00000000E+00
  0.00000000E+00  0.00000000E+00  0.00000000E+00
  0.00000000E+00  0.00000000E+00  0.00000000E+00
  0.00000000E+00  0.00000000E+00  0.00000000E+00
  0.00000000E+00  0.00000000E+00  0.00000000E+00
  0.00000000E+00  0.00000000E+00  0.00000000E+00
  0.00000000E+00  0.00000000E+00  0.00000000E+00
  0.00000000E+00  0.00000000E+00  0.00000000E+00
  0.00000000E+00  0.00000000E+00  0.00000000E+00
  0.00000000E+00  0.00000000E+00  0.00000000E+00
  0.00000000E+00  0.00000000E+00  0.00000000E+00
  0.00000000E+00  0.00000000E+00  0.00000000E+00
  0.00000000E+00  0.00000000E+00  0.00000000E+00
  0.00000000E+00  0.00000000E+00  0.00000000E+00
  0.00000000E+00  0.00000000E+00  0.00000000E+00
  0.00000000E+00  0.00000000E+00  0.00000000E+00
  0.00000000E+00  0.00000000E+00  0.00000000E+00
  0.00000000E+00  0.00000000E+00  0.00000000E+00
  0.00000000E+00  0.00000000E+00  0.00000000E+00
  0.00000000E+00  0.00000000E+00  0.00000000E+00
  0.00000000E+00  0.00000000E+00  0.00000000E+00
  0.00000000E+00  0.00000000E+00  0.00000000E+00
  0.00000000E+00  0.00000000E+00  0.00000000E+00
  0.00000000E+00  0.00000000E+00  0.00000000E+00
  0.00000000E+00  0.00000000E+00  0.00000000E+00
  0.00000000E+00  0.00000000E+00  0.00000000E+00
  0.00000000E+00  0.00000000E+00  0.00000000E+00
  0.00000000E+00  0.00000000E+00  0.00000000E+00
  0.00000000E+00  0.00000000E+00  0.00000000E+00
  0.00000000E+00  0.00000000E+00  0.00000000E+00
  0.00000000E+00  0.00000000E+00  0.00000000E+00
  0.00000000E+00  0.00000000E+00  0.00000000E+00
  0.00000000E+00  0.00000000E+00  0.00000000E+00
  0.00000000E+00  0.00000000E+00  0.00000000E+00
  0.00000000E+00  0.00000000E+00  0.00000000E+00
  0.00000000E+00  0.00000000E+00  0.00000000E+00
  0.00000000E+00  0.00000000E+00  0.00000000E+00
  0.00000000E+00  0.00000000E+00  0.00000000E+00
