&control
 calculation = 'scf'
 wf_collect = .true.
 verbosity = 'high'
 outdir='temp'
 pseudo_dir="~/Pseudopotential/pseudo-ONCV-proj/"
 etot_conv_thr=1d-6,
 forc_conv_thr=1d-5,
 nstep=1000
/

&system
 input_dft = "pbe0" ! test smearing pbe level 
 !exx_fraction = 0.375
 !screening_parameter=0.2
 ibrav = 0
 !a = 12.994354248
 !c = 15.612038612
 nat = 191
 ntyp = 4
 ecutwfc = 80 ! o 70 
 ecutfock = 160 !
 nspin = 2
 !tot_magnetization = 2
 starting_magnetization(1) = 0.5 ! 0.6, 0.8, 1
 starting_magnetization(2) = 0
 starting_magnetization(3) = 0 ! 0.1
 starting_magnetization(4) = 1
 ! tot_magnetization = 2
 occupations = "smearing"
 degauss = 0.0001 ! test 0.001, 0.005
 tot_charge = +1
 nbnd = 1260 ! see this change
 force_symmorphic=.true. !Yambo require this
/

&electrons
 conv_thr = 1e-09
 electron_maxstep = 100
 mixing_beta = 0.5
 adaptive_thr = .TRUE.
/

&ions
/
&cell
/
ATOMIC_SPECIES
Zn1  0.0  Zn_ONCV_PBE-1.0.upf
Zn  0.0  Zn_ONCV_PBE-1.0.upf
O  0.0  O_ONCV_PBE-1.0.upf
V 0.0 V_ONCV_PBE-1.0.upf

K_POINTS gamma
CELL_PARAMETERS (angstrom)
    12.9943542480000005    0.0000000000000000    0.0000000000000000
    -6.4971766471999999   11.2534400587000007    0.0000000000000000
     0.0000000000000000    0.0000000000000000   15.6120386123999992
ATOMIC_POSITIONS (crystal)
Zn         0.1666398746916239  0.0833601173083755  0.1662569633749528
Zn         0.1667381294244339  0.0832618625755655  0.5002734457976733
Zn         0.1666813385351328  0.0833186534648666  0.8333980828906996
Zn         0.1664320771817529  0.3332099130278062  0.1663873491485220
Zn         0.1661958977351082  0.3330932322258864  0.5001071839306618
Zn         0.1666355099522934  0.3333095053299678  0.8336208070882803
Zn         0.1666331179914528  0.5832662223196204  0.1662564209640845
Zn         0.1667420769997969  0.5834763921006917  0.5002789055264114
Zn         0.1666790214141622  0.5833600483886020  0.8334049196351436
Zn         0.1667139631615507  0.8333537008627226  0.1662304058553229
Zn         0.1672300752404603  0.8336160878751230  0.5003416807669461
Zn         0.1666916317403899  0.8333487528714106  0.8335640951509886
Zn         0.4166462991372774  0.0832860288384487  0.1662304058553229
Zn         0.4163839121248769  0.0827699167595390  0.5003416807669461
Zn         0.4166512471285891  0.0833083602596094  0.8335640951509886
Zn         0.4159716664233892  0.3329054095403891  0.1665389177276694
Zn         0.4130747967753384  0.3311334015256524  0.5016360201416599
Zn         0.4177735629616280  0.3339480524499363  0.8329488532794224
Zn         0.4159623509535285  0.5830697945624936  0.1665340959851790
Zn         0.4129924000661470  0.5819536436216610  0.5016347021547756
Zn         0.4177522452146429  0.5838417013827685  0.8329720767350229
Zn         0.4166366415348275  0.8333633584651725  0.1662280912283836
Zn         0.4163475542434908  0.8336524457565092  0.5003475885676234
Zn         0.4166322956264213  0.8333677043735785  0.8335772805131568
Zn         0.6667337776803796  0.0833668740085465  0.1662564209640845
Zn         0.6665236078993083  0.0832579150002025  0.5002789055264114
Zn         0.6666399516113980  0.0833209705858371  0.8334049196351436
Zn         0.6669431491710003  0.3329001624389597  0.1665334114308325
Zn         0.6681308875817017  0.3310677091734320  0.5016449811307394
Zn         0.6661950345579501  0.3339230698204341  0.8329681804207185
Zn         0.6666659704880493  0.5833340295119507  0.1670506001072971
Zn         0.6666561670141044  0.5833438329858956  0.8350279389960432
Zn         0.6669302054375064  0.8340376490464716  0.1665340959851790
Zn         0.6680463563783390  0.8370075999338531  0.5016347021547756
Zn         0.6661582986172315  0.8322477547853571  0.8329720767350229
Zn         0.9167900869721938  0.0835679148182464  0.1663873491485220
Zn         0.9169067677741137  0.0838040942648911  0.5001071839306618
Zn         0.9166904946700322  0.0833644820477059  0.8336208070882803
Zn         0.9167936510273564  0.3332063489726434  0.1663872844470765
Zn         0.9169184604966790  0.3330815395033210  0.5001064842203532
Zn         0.9167044870867248  0.3332955129132752  0.8336373463058910
Zn         0.9170998375610401  0.5830568508289997  0.1665334114308325
Zn         0.9189322908265678  0.5818691124182983  0.5016449811307394
Zn         0.9160769301795658  0.5838049654420499  0.8329681804207185
Zn         0.9170945904596109  0.8340283335766109  0.1665389177276694
Zn         0.9188665984743478  0.8369252032246615  0.5016360201416599
Zn         0.9160519475500636  0.8322264370383720  0.8329488532794224
Zn         0.0833434970330414  0.1666564949669580  0.0000491307345505
Zn         0.0833101219705255  0.1666898700294737  0.3330980320784007
Zn         0.0834097304057347  0.1665902615942647  0.6669610031170865
Zn         0.0833487489550304  0.4166809906483703  0.0000571176008780
Zn         0.0833173774177309  0.4166262119417874  0.3330948335698112
Zn         0.0834464340965095  0.4168505202586018  0.6669750312579359
Zn         0.0832264363035806  0.6665915327573836  0.9997900224542219
Zn         0.0842100480950523  0.6670173835005075  0.3328666700851109
Zn         0.0822375294520611  0.6667341677740065  0.6672604459083812
Zn         0.0832234346360601  0.9166246261520503  0.9997807895679873
Zn         0.0842150493209827  0.9172020817998793  0.3328732615299044
Zn         0.0821658304831534  0.9154756494224795  0.6672413657431570
Zn         0.3333753738479496  0.1667765573639393  0.9997807895679873
Zn         0.3327979182001206  0.1657849426790166  0.3328732615299044
Zn         0.3345243505775204  0.1678341615168459  0.6672413657431570
Zn         0.3334232594703921  0.4167154036918728  0.9997458134538403
Zn         0.3323882270899884  0.4162044526958246  0.3330537884831979
Zn         0.3336730296490968  0.4168724194486915  0.6678027650940903
Zn         0.3333661689267841  0.6666016148178290  0.9997928015601811
Zn         0.3327998270989836  0.6670342381519033  0.3328629114863039
Zn         0.3345026223400216  0.6667840478836696  0.6672635289171901
Zn         0.3333270791493074  0.9166729208506925  0.0000454238898536
Zn         0.3333231606118637  0.9166768393881294  0.3327397584599334
Zn         0.3332992897646657  0.9167007102353342  0.6669847715615456
Zn         0.5834084672426164  0.1667735556964187  0.9997900224542219
Zn         0.5829826164994925  0.1657899439049471  0.3328666700851109
Zn         0.5832658322259935  0.1677624625479383  0.6672604459083812
Zn         0.5832214812195089  0.4164220820347283  0.0008177382034348
Zn         0.5824642246327575  0.4148999177712931  0.3307420947103863
Zn         0.5896497386030791  0.4291549977954341  0.6644545794575778
Zn         0.5832122186523765  0.6667877813476235  0.0008245247174874
Zn         0.5824415056948039  0.6675584943051961  0.3307331728580895
Zn         0.5895608555106103  0.6604391444893897  0.6644699610410645
Zn         0.5833983851821710  0.9166338310732229  0.9997928015601811
Zn         0.5829657618480967  0.9172001729010163  0.3328629114863039
Zn         0.5832159521163304  0.9154973776599783  0.6672635289171901
Zn         0.8333190093516224  0.1666512430449689  0.0000571176008780
Zn         0.8333737880582127  0.1666826145822684  0.3330948335698112
Zn         0.8331494797413981  0.1665535579034899  0.6669750312579359
Zn         0.8332753419933550  0.4167246580066450  0.9997446381500172
Zn         0.8338186977635654  0.4161813022364348  0.3330492782837562
Zn         0.8332378390472275  0.4167621609527727  0.6678271428786782
Zn         0.8335779179652718  0.6667785187804911  0.0008177382034348
Zn         0.8351000822287069  0.6675357753672425  0.3307420947103863
Zn         0.8208450022045658  0.6603502613969209  0.6644545794575778
Zn         0.8332845963081272  0.9165767405296079  0.9997458134538403
Zn         0.8337955473041755  0.9176117729100116  0.3330537884831979
Zn         0.8331275805513085  0.9163269703509033  0.6678027650940903
O         0.1666299829622792  0.0833700090377201  0.2937704256752245
O         0.1669687443752578  0.0830312476247415  0.6271554366471550
O         0.1666727043665042  0.0833272876334951  0.9604713538833349
O         0.1666399348679919  0.3333122802799393  0.2938462609980109
O         0.1675042031162743  0.3337513196509314  0.6269613815499875
O         0.1667670689623691  0.3333747441881117  0.9606203805970837
O         0.1666242390807955  0.5832433773804488  0.2937642737750002
O         0.1669896544304582  0.5839498641544640  0.6271568903758256
O         0.1666708855114882  0.5833278115065467  0.9604775078021562
O         0.1665802051275070  0.8332891546500449  0.2937270625399501
O         0.1663030990337795  0.8331565143688175  0.6269599765562530
O         0.1666252857642243  0.8333094771317479  0.9605565503631676
O         0.4167108453499551  0.0834197868724923  0.2937270625399501
O         0.4168434856311896  0.0836968929662198  0.6269599765562530
O         0.4166905228682523  0.0833747062357751  0.9605565503631676
O         0.4167177059629135  0.3333629955765413  0.2946168128058743
O         0.4205749594571307  0.3364882165152159  0.6274637153271132
O         0.4172753177969643  0.3337019946790248  0.9601880008779784
O         0.4167031369141422  0.5833570416116002  0.2946111773235421
O         0.4205160311424624  0.5841817718797566  0.6274626778813208
O         0.4172711088247080  0.5835796820951680  0.9602041214470364
O         0.4166994100232805  0.8333005899767194  0.2937222775867404
O         0.4168018407394209  0.8331981592605792  0.6269621041314997
O         0.4166869724128325  0.8333130275871675  0.9605657988233806
O         0.6667566226195512  0.0833757529192038  0.2937642737750002
O         0.6660501358455360  0.0830103375695411  0.6271568903758256
O         0.6666721884934533  0.0833291064885111  0.9604775078021562
O         0.6666624913676976  0.3333474244088456  0.2946077269294647
O         0.6659835097046334  0.3363878177718571  0.6274715000431603
O         0.6664406016273507  0.3336840713175219  0.9602025295347580
O         0.6666639087639928  0.5833360912360072  0.2966773343185347
O         0.6666708792146261  0.5833291207853739  0.9614217528883376
O         0.6666429583883998  0.8332968630858578  0.2946111773235421
O         0.6658182281202434  0.8294839688575375  0.6274626778813208
O         0.6664203179048320  0.8327288911752920  0.9602041214470364
O         0.9166877197200607  0.0833600571320074  0.2938462609980109
O         0.9162486803490685  0.0824957888837250  0.6269613815499875
O         0.9166252558118883  0.0832329230376303  0.9606203805970837
O         0.9166989825189827  0.3333010174810102  0.2938421807203832
O         0.9163152982550233  0.3336847017449769  0.6269591213053213
O         0.9166354820141205  0.3333645179858796  0.9606252515253897
O         0.9166525755911547  0.5833375086323024  0.2946077269294647
O         0.9136121822281430  0.5840164902953666  0.6274715000431603
O         0.9163159286824782  0.5835593983726493  0.9602025295347580
O         0.9166370044234590  0.8332822940370866  0.2946168128058743
O         0.9135117834847841  0.8294250405428690  0.6274637153271132
O         0.9162980053209752  0.8327246822030356  0.9601880008779784
O         0.0833395219952806  0.1666604700047187  0.1272834332818364
O         0.0834948017123830  0.1665051902876163  0.4604054162955145
O         0.0833160515665933  0.1666839404334061  0.7936950167805238
O         0.0833426308080076  0.4166793521464254  0.1272881200805163
O         0.0835292364301417  0.4170162706960671  0.4603995174498540
O         0.0833311428465417  0.4166473102590798  0.7937023558623053
O         0.0831674940776413  0.6665647787670337  0.1272347743482834
O         0.0826510464993208  0.6667337818722715  0.4603417192371695
O         0.0829325525763605  0.6665487245454172  0.7938127022184248
O         0.0831624839722825  0.9166064358667416  0.1272303939282986
O         0.0826079315872444  0.9158969922810030  0.4603508306775946
O         0.0829182848197754  0.9163794688988099  0.7938005651225705
O         0.3333935641332583  0.1668375080277169  0.1272303939282986
O         0.3341030077189972  0.1673920604127549  0.4603508306775946
O         0.3336205311011972  0.1670817071802169  0.7938005651225705
O         0.3334456047442010  0.4167295654004199  0.1273566347024696
O         0.3342969576182882  0.4171759018257762  0.4605150515706202
O         0.3335149316687127  0.4167756101105611  0.7940709561329018
O         0.3333874996151755  0.6665713184029116  0.1272349391512646
O         0.3340829029927551  0.6667792814586709  0.4603385366049633
O         0.3336053004728594  0.6665770569067621  0.7938161825038903
O         0.3333253789802679  0.9166746210197319  0.1272822752947540
O         0.3333082891554575  0.9166917108445424  0.4600189201384174
O         0.3333190734614103  0.9166809265385899  0.7937445393711016
O         0.5834352212329663  0.1668324979223581  0.1272347743482834
O         0.5832662181277285  0.1673489455006785  0.4603417192371695
O         0.5834512754545828  0.1670674394236388  0.7938127022184248
O         0.5834212401393735  0.4168482067007799  0.1285192385349778
O         0.5866383230769098  0.4231204158220221  0.4629766568586210
O         0.5843313653107189  0.4186059204755442  0.7912049130877196
O         0.5834165979164462  0.6665834020835538  0.1285209317482281
O         0.5864815601974601  0.6635184398025399  0.4629623991818080
O         0.5842738927472126  0.6657261072527874  0.7912115088581861
O         0.5834286815970884  0.9166125003848244  0.1272349391512646
O         0.5832207185413291  0.9159170970072450  0.4603385366049633
O         0.5834229430932379  0.9163946995271407  0.7938161825038903
O         0.8333206478535746  0.1666573611919917  0.1272881200805163
O         0.8329837293039328  0.1664707555698577  0.4603995174498540
O         0.8333526897409200  0.1666688491534577  0.7937023558623053
O         0.8332822641016394  0.4167177358983608  0.1273602767001697
O         0.8329045449485075  0.4170954550514924  0.4605007309275351
O         0.8332670814474363  0.4167329185525637  0.7940798378910420
O         0.8331517932992202  0.6665787598606265  0.1285192385349778
O         0.8268795841779779  0.6633616769230902  0.4629766568586210
O         0.8313940795244559  0.6656686346892811  0.7912049130877196
O         0.8332704345995801  0.9165543952557990  0.1273566347024696
O         0.8328240981742239  0.9157030423817119  0.4605150515706202
O         0.8332243898894390  0.9164850683312874  0.7940709561329018
V         0.6666716791620698  0.5833283208379302  0.4967935578935994
