Zn2 O2                                  
   1.00000000000000     
    12.9943542480000005    0.0000000000000000    0.0000000000000000
    -6.4971766471999999   11.2534400587000007    0.0000000000000000
     0.0000000000000000    0.0000000000000000   15.6120386123999992
   Zn   O    V 
    95    95     1
Direct
  0.1665763646527586  0.0834236273472408  0.1662379276137267
  0.1666133726983721  0.0833866193016273  0.4991364470664998
  0.1665867635232109  0.0834132284767884  0.8336337972990985
  0.1660866246240517  0.3330269530286316  0.1662434584986879
  0.1658724128778204  0.3329209202801837  0.4993502994686028
  0.1661828871308811  0.3330666111779861  0.8337189684193578
  0.1665698620924633  0.5831384078044374  0.1662468830879065
  0.1666086371961047  0.5832137270314909  0.4991263008376609
  0.1665679873700961  0.5831461950212581  0.8336543447817479
  0.1669722692790797  0.8334858205437664  0.1662273320499051
  0.1674456475917057  0.8337282994168081  0.4996993920247227
  0.1668848929848997  0.8334479236372168  0.8336429339988711
  0.4165141794562336  0.0830277227209196  0.1662273320499051
  0.4162717005831919  0.0825543444082936  0.4996993920247227
  0.4165520763627832  0.0831150990150925  0.8336429339988711
  0.4155791736279766  0.3325874789693131  0.1667751515166561
  0.4124391723032267  0.3305783285315515  0.4997548673900408
  0.4157090351740687  0.3328986092982044  0.8350116877356001
  0.4155603694726105  0.5829884327618901  0.1667758570725620
  0.4123922715037375  0.5818891574385707  0.4997562596870342
  0.4156479092586262  0.5828375071122189  0.8350103521519996
  0.4164985509731219  0.8335014490268781  0.1662214900650194
  0.4162514475323350  0.8337485524676650  0.4996949976476213
  0.4164983878777523  0.8335016121222477  0.8336558896440693
  0.6668615921955626  0.0834301299075360  0.1662468830879065
  0.6667862729685091  0.0833913548038946  0.4991263008376609
  0.6668538049787419  0.0834320046299032  0.8336543447817479
  0.6670328249691942  0.3325862712940330  0.1667816843447117
  0.6681805556148459  0.3305296924951930  0.4997478642215759
  0.6672430412477015  0.3328707852878929  0.8350145550145529
  0.6666601907173990  0.5833398092826010  0.1687968456202496
  0.6666426534912681  0.5833573465087319  0.8355095118015691
  0.6670115672381099  0.8344396305273895  0.1667758570725620
  0.6681108425614293  0.8376077284962625  0.4997562596870342
  0.6671624928877811  0.8343520907413738  0.8350103521519996
  0.9169730469713684  0.0839133673759476  0.1662434584986879
  0.9170790797198163  0.0841275791221789  0.4993502994686028
  0.9169333888220139  0.0838171048691182  0.8337189684193578
  0.9169828020479540  0.3330171979520460  0.1662514666218162
  0.9171042871743487  0.3328957128256513  0.4993427165379960
  0.9169477110100046  0.3330522889899954  0.8337156814799400
  0.9174137287059670  0.5829671750308058  0.1667816843447117
  0.9194703075048070  0.5818194443851541  0.4997478642215759
  0.9171292147121072  0.5827569587522985  0.8350145550145529
  0.9174125210306869  0.8344208263720234  0.1667751515166561
  0.9194216714684414  0.8375608276967733  0.4997548673900408
  0.9171013907017955  0.8342909648259312  0.8350116877356001
  0.0833492561830501  0.1666507358169493  0.0000444852949570
  0.0832544315815755  0.1667455604184238  0.3325619303628384
  0.0830072042844036  0.1669927877155957  0.6666435174343658
  0.0833588520463810  0.4166865420175097  0.0000592061680769
  0.0832684630240967  0.4164922210107344  0.3325615547717204
  0.0830288937576859  0.4159949577772690  0.6666401106495911
  0.0835470276552828  0.6668028969641712  0.0002869104155227
  0.0846450564330327  0.6672168920629966  0.3323901836149750
  0.0853302088220375  0.6670204696248324  0.6670343896959411
  0.0835331666736575  0.9167369048298574  0.0002866629520582
  0.0846431233055341  0.9174326642432734  0.3323986495803234
  0.0852748217712141  0.9182784671600369  0.6670225835937201
  0.3332630951701426  0.1664668253263418  0.0002866629520582
  0.3325673357567266  0.1653568686944653  0.3323986495803234
  0.3317215328399631  0.1647251702287853  0.6670225835937201
  0.3331252609267514  0.4165709877736269  0.0006293047442404
  0.3319668434118935  0.4159834468003025  0.3324905218987775
  0.3317964106184471  0.4159193357872621  0.6679226594970871
  0.3332486897668751  0.6668185225798056  0.0002843504310922
  0.3325628712294511  0.6672295229669916  0.3323902814861601
  0.3316576681460368  0.6670691336032126  0.6670346137500045
  0.3333125330328374  0.9166874669671626  0.9999340373453690
  0.3333294674416649  0.9166705325583280  0.3325087258529000
  0.3332872036878554  0.9167127963121446  0.6666054491375948
  0.5831971030358288  0.1664529643447166  0.0002869104155227
  0.5827831079370034  0.1653549355669666  0.3323901836149750
  0.5829795303751676  0.1646697831779618  0.6670343896959411
  0.5834288018759006  0.4168009023800081  0.0023163592698498
  0.5818411854126633  0.4136512823763414  0.3301106700502948
  0.5769339666996489  0.4037191417676239  0.6696452452035169
  0.5833933934817117  0.6666066065182883  0.0023180574844117
  0.5818167517950079  0.6681832482049921  0.3301115358212026
  0.5767810281551357  0.6732189718448643  0.6696543068722022
  0.5831814774201944  0.9167513102331319  0.0002843504310922
  0.5827704770330084  0.9174371287705489  0.3323902814861601
  0.5829308663967874  0.9183423318539703  0.6670346137500045
  0.8333134579824832  0.1666411399536183  0.0000592061680769
  0.8335077789892655  0.1667315289759027  0.3325615547717204
  0.8340050422227311  0.1669710982423135  0.6666401106495911
  0.8334643018014232  0.4165356981985768  0.0006473654598436
  0.8340387842780593  0.4159612157219407  0.3324895460145689
  0.8341503496509368  0.4158496503490631  0.6679114856544679
  0.8331990976199919  0.6665711981240994  0.0023163592698498
  0.8363487176236586  0.6681588145873367  0.3301106700502948
  0.8462808582323761  0.6730660333003511  0.6696452452035169
  0.8334290122263731  0.9168747390732487  0.0006293047442404
  0.8340165531996976  0.9180331565881065  0.3324905218987775
  0.8340806642127379  0.9182035893815529  0.6679226594970871
  0.1665644445078795  0.0834355474921198  0.2936597997558461
  0.1664453958825848  0.0835545961174145  0.6262761775647354
  0.1667404069474969  0.0832595850525024  0.9601672424549482
  0.1664640625709020  0.3332096032049512  0.2936060023516573
  0.1671474266594860  0.3335514049095747  0.6264189840960811
  0.1669794562978421  0.3334768527348354  0.9602796261282711
  0.1665508450378884  0.5831029026070924  0.2936616031494367
  0.1664071704786868  0.5828409615226346  0.6262646570659476
  0.1667338550318895  0.5834573072597257  0.9601782741336968
  0.1667071294296891  0.8333521274517697  0.2936282496041611
  0.1660857863764129  0.8330427604096656  0.6267674865297981
  0.1664990495344335  0.8332454379014382  0.9601595256599907
  0.4166478725482303  0.0832928625703103  0.2936282496041611
  0.4169572395903415  0.0839142056235865  0.6267674865297981
  0.4167545620985688  0.0835009424655659  0.9601595256599907
  0.4162891999985992  0.3330574807604053  0.2948328595186189
  0.4170789028487769  0.3341508380788727  0.6264890661496061
  0.4175477780379550  0.3339091265465739  0.9610248215966263
  0.4162693952117715  0.5832155936151618  0.2948317638726335
  0.4169448698294629  0.5829528602020295  0.6264919045748242
  0.4175131663611433  0.5836468584587275  0.9610266534687412
  0.4166365733457538  0.8333634266542391  0.2936232248876978
  0.4168963840938749  0.8331036159061251  0.6267696580092607
  0.4167288312019684  0.8332711687980316  0.9601706878478861
  0.6668970973929076  0.0834491469621109  0.2936616031494367
  0.6671590384773654  0.0835928215213126  0.6262646570659476
  0.6665426927402743  0.0832661369681098  0.9601782741336968
  0.6667978451445141  0.3330626496537978  0.2948368873158457
  0.6671295364148971  0.3340618997402228  0.6264788955327388
  0.6663972659066930  0.3338755047741087  0.9610301194246557
  0.6666604450644874  0.5833395549355126  0.2990808452099753
  0.6666662578540491  0.5833337421459509  0.9612971834133690
  0.6667844063848382  0.8337306047882285  0.2948317638726335
  0.6670471397979705  0.8330551301705371  0.6264919045748242
  0.6663531415412725  0.8324868336388567  0.9610266534687412
  0.9167903967950488  0.0835359294290973  0.2936060023516573
  0.9164485950904323  0.0828525653405134  0.6264189840960811
  0.9165231472651646  0.0830205357021573  0.9602796261282711
  0.9167950738335336  0.3332049261664592  0.2936139701025251
  0.9164817052015275  0.3335182947984726  0.6264057660296826
  0.9165418028894267  0.3334581971105734  0.9602848876236966
  0.9169373503462022  0.5832021548554859  0.2948368873158457
  0.9159381002597773  0.5828704635851029  0.6264788955327388
  0.9161244952258912  0.5836027340933070  0.9610301194246557
  0.9169425192395947  0.8337108000014009  0.2948328595186189
  0.9158491619211273  0.8329210971512161  0.6264890661496061
  0.9160908734534261  0.8324522219620449  0.9610248215966263
  0.0833673308941520  0.1666326611058473  0.1269485240832398
  0.0834537451358551  0.1665462468641442  0.4600271666999087
  0.0833711796141021  0.1666288123858972  0.7932386366393666
  0.0833763428352602  0.4167320927162266  0.1269633717333047
  0.0834731518043041  0.4169037378400315  0.4600224242514980
  0.0833957595568579  0.4167349645477630  0.7932401353499113
  0.0832795564523326  0.6666594110051645  0.1272746281773729
  0.0831751515704715  0.6670518944200160  0.4601185022101115
  0.0826112682199749  0.6664266296404482  0.7933253459498477
  0.0832764388388432  0.9166241373440713  0.1272653423934813
  0.0831379890514372  0.9161146543123375  0.4601310765690808
  0.0825829019855044  0.9161704438075386  0.7933174259916170
  0.3333758626559287  0.1667235531611561  0.1272653423934813
  0.3338853456876625  0.1668620029485621  0.4601310765690808
  0.3338295561924685  0.1674170900144878  0.7933174259916170
  0.3333382735020095  0.4166712932181215  0.1276763977244285
  0.3340730497648961  0.4170574257973208  0.4603016934791227
  0.3339306307041351  0.4169874405055982  0.7938732705117940
  0.3333670818016216  0.6666730255683169  0.1272730600723743
  0.3338649450276587  0.6670833249602174  0.4601194673280633
  0.3337910928220446  0.6664856709926149  0.7933235082533305
  0.3333191484823877  0.9166808515176124  0.1268802842914000
  0.3333106792802851  0.9166893207197079  0.4600102292917216
  0.3332955344785092  0.9167044655214908  0.7931818308312847
  0.5833405889948355  0.1667204355476667  0.1272746281773729
  0.5829481055799840  0.1668248404295278  0.4601185022101115
  0.5835733703595518  0.1673887237800245  0.7933253459498477
  0.5835936514390799  0.4171622867872490  0.1296670416555400
  0.5855936221485352  0.4210565544825882  0.4628601339345029
  0.5839484508140087  0.4178259236597359  0.7926817611068332
  0.5835667081686093  0.6664332918313907  0.1296676073815973
  0.5854730828511188  0.6645269171488812  0.4628676632297790
  0.5838757614794384  0.6661242385205616  0.7926788537895550
  0.5833269744316831  0.9166329181983784  0.1272730600723743
  0.5829166750397826  0.9161350549723414  0.4601194673280633
  0.5835143290073851  0.9162089071779554  0.7933235082533305
  0.8332679072837734  0.1666236491647391  0.1269633717333047
  0.8330962621599614  0.1665268401957023  0.4600224242514980
  0.8332650354522370  0.1666042324431414  0.7932401353499113
  0.8333471157765383  0.4166528842234617  0.1276936939617680
  0.8330072777905415  0.4169927222094584  0.4602933354376634
  0.8330799208053332  0.4169200791946668  0.7938609888570400
  0.8328377132127510  0.6664063485609201  0.1296670416555400
  0.8289434455174118  0.6644063778514648  0.4628601339345029
  0.8321740763402641  0.6660515491859913  0.7926817611068332
  0.8333287067818785  0.9166617264979905  0.1276763977244285
  0.8329425742026793  0.9159269502351040  0.4603016934791227
  0.8330125594944018  0.9160693692958649  0.7938732705117940
  0.6666405282360693  0.5833594717639307  0.4918979225920458
 
  0.00000000E+00  0.00000000E+00  0.00000000E+00
  0.00000000E+00  0.00000000E+00  0.00000000E+00
  0.00000000E+00  0.00000000E+00  0.00000000E+00
  0.00000000E+00  0.00000000E+00  0.00000000E+00
  0.00000000E+00  0.00000000E+00  0.00000000E+00
  0.00000000E+00  0.00000000E+00  0.00000000E+00
  0.00000000E+00  0.00000000E+00  0.00000000E+00
  0.00000000E+00  0.00000000E+00  0.00000000E+00
  0.00000000E+00  0.00000000E+00  0.00000000E+00
  0.00000000E+00  0.00000000E+00  0.00000000E+00
  0.00000000E+00  0.00000000E+00  0.00000000E+00
  0.00000000E+00  0.00000000E+00  0.00000000E+00
  0.00000000E+00  0.00000000E+00  0.00000000E+00
  0.00000000E+00  0.00000000E+00  0.00000000E+00
  0.00000000E+00  0.00000000E+00  0.00000000E+00
  0.00000000E+00  0.00000000E+00  0.00000000E+00
  0.00000000E+00  0.00000000E+00  0.00000000E+00
  0.00000000E+00  0.00000000E+00  0.00000000E+00
  0.00000000E+00  0.00000000E+00  0.00000000E+00
  0.00000000E+00  0.00000000E+00  0.00000000E+00
  0.00000000E+00  0.00000000E+00  0.00000000E+00
  0.00000000E+00  0.00000000E+00  0.00000000E+00
  0.00000000E+00  0.00000000E+00  0.00000000E+00
  0.00000000E+00  0.00000000E+00  0.00000000E+00
  0.00000000E+00  0.00000000E+00  0.00000000E+00
  0.00000000E+00  0.00000000E+00  0.00000000E+00
  0.00000000E+00  0.00000000E+00  0.00000000E+00
  0.00000000E+00  0.00000000E+00  0.00000000E+00
  0.00000000E+00  0.00000000E+00  0.00000000E+00
  0.00000000E+00  0.00000000E+00  0.00000000E+00
  0.00000000E+00  0.00000000E+00  0.00000000E+00
  0.00000000E+00  0.00000000E+00  0.00000000E+00
  0.00000000E+00  0.00000000E+00  0.00000000E+00
  0.00000000E+00  0.00000000E+00  0.00000000E+00
  0.00000000E+00  0.00000000E+00  0.00000000E+00
  0.00000000E+00  0.00000000E+00  0.00000000E+00
  0.00000000E+00  0.00000000E+00  0.00000000E+00
  0.00000000E+00  0.00000000E+00  0.00000000E+00
  0.00000000E+00  0.00000000E+00  0.00000000E+00
  0.00000000E+00  0.00000000E+00  0.00000000E+00
  0.00000000E+00  0.00000000E+00  0.00000000E+00
  0.00000000E+00  0.00000000E+00  0.00000000E+00
  0.00000000E+00  0.00000000E+00  0.00000000E+00
  0.00000000E+00  0.00000000E+00  0.00000000E+00
  0.00000000E+00  0.00000000E+00  0.00000000E+00
  0.00000000E+00  0.00000000E+00  0.00000000E+00
  0.00000000E+00  0.00000000E+00  0.00000000E+00
  0.00000000E+00  0.00000000E+00  0.00000000E+00
  0.00000000E+00  0.00000000E+00  0.00000000E+00
  0.00000000E+00  0.00000000E+00  0.00000000E+00
  0.00000000E+00  0.00000000E+00  0.00000000E+00
  0.00000000E+00  0.00000000E+00  0.00000000E+00
  0.00000000E+00  0.00000000E+00  0.00000000E+00
  0.00000000E+00  0.00000000E+00  0.00000000E+00
  0.00000000E+00  0.00000000E+00  0.00000000E+00
  0.00000000E+00  0.00000000E+00  0.00000000E+00
  0.00000000E+00  0.00000000E+00  0.00000000E+00
  0.00000000E+00  0.00000000E+00  0.00000000E+00
  0.00000000E+00  0.00000000E+00  0.00000000E+00
  0.00000000E+00  0.00000000E+00  0.00000000E+00
  0.00000000E+00  0.00000000E+00  0.00000000E+00
  0.00000000E+00  0.00000000E+00  0.00000000E+00
  0.00000000E+00  0.00000000E+00  0.00000000E+00
  0.00000000E+00  0.00000000E+00  0.00000000E+00
  0.00000000E+00  0.00000000E+00  0.00000000E+00
  0.00000000E+00  0.00000000E+00  0.00000000E+00
  0.00000000E+00  0.00000000E+00  0.00000000E+00
  0.00000000E+00  0.00000000E+00  0.00000000E+00
  0.00000000E+00  0.00000000E+00  0.00000000E+00
  0.00000000E+00  0.00000000E+00  0.00000000E+00
  0.00000000E+00  0.00000000E+00  0.00000000E+00
  0.00000000E+00  0.00000000E+00  0.00000000E+00
  0.00000000E+00  0.00000000E+00  0.00000000E+00
  0.00000000E+00  0.00000000E+00  0.00000000E+00
  0.00000000E+00  0.00000000E+00  0.00000000E+00
  0.00000000E+00  0.00000000E+00  0.00000000E+00
  0.00000000E+00  0.00000000E+00  0.00000000E+00
  0.00000000E+00  0.00000000E+00  0.00000000E+00
  0.00000000E+00  0.00000000E+00  0.00000000E+00
  0.00000000E+00  0.00000000E+00  0.00000000E+00
  0.00000000E+00  0.00000000E+00  0.00000000E+00
  0.00000000E+00  0.00000000E+00  0.00000000E+00
  0.00000000E+00  0.00000000E+00  0.00000000E+00
  0.00000000E+00  0.00000000E+00  0.00000000E+00
  0.00000000E+00  0.00000000E+00  0.00000000E+00
  0.00000000E+00  0.00000000E+00  0.00000000E+00
  0.00000000E+00  0.00000000E+00  0.00000000E+00
  0.00000000E+00  0.00000000E+00  0.00000000E+00
  0.00000000E+00  0.00000000E+00  0.00000000E+00
  0.00000000E+00  0.00000000E+00  0.00000000E+00
  0.00000000E+00  0.00000000E+00  0.00000000E+00
  0.00000000E+00  0.00000000E+00  0.00000000E+00
  0.00000000E+00  0.00000000E+00  0.00000000E+00
  0.00000000E+00  0.00000000E+00  0.00000000E+00
  0.00000000E+00  0.00000000E+00  0.00000000E+00
  0.00000000E+00  0.00000000E+00  0.00000000E+00
  0.00000000E+00  0.00000000E+00  0.00000000E+00
  0.00000000E+00  0.00000000E+00  0.00000000E+00
  0.00000000E+00  0.00000000E+00  0.00000000E+00
  0.00000000E+00  0.00000000E+00  0.00000000E+00
  0.00000000E+00  0.00000000E+00  0.00000000E+00
  0.00000000E+00  0.00000000E+00  0.00000000E+00
  0.00000000E+00  0.00000000E+00  0.00000000E+00
  0.00000000E+00  0.00000000E+00  0.00000000E+00
  0.00000000E+00  0.00000000E+00  0.00000000E+00
  0.00000000E+00  0.00000000E+00  0.00000000E+00
  0.00000000E+00  0.00000000E+00  0.00000000E+00
  0.00000000E+00  0.00000000E+00  0.00000000E+00
  0.00000000E+00  0.00000000E+00  0.00000000E+00
  0.00000000E+00  0.00000000E+00  0.00000000E+00
  0.00000000E+00  0.00000000E+00  0.00000000E+00
  0.00000000E+00  0.00000000E+00  0.00000000E+00
  0.00000000E+00  0.00000000E+00  0.00000000E+00
  0.00000000E+00  0.00000000E+00  0.00000000E+00
  0.00000000E+00  0.00000000E+00  0.00000000E+00
  0.00000000E+00  0.00000000E+00  0.00000000E+00
  0.00000000E+00  0.00000000E+00  0.00000000E+00
  0.00000000E+00  0.00000000E+00  0.00000000E+00
  0.00000000E+00  0.00000000E+00  0.00000000E+00
  0.00000000E+00  0.00000000E+00  0.00000000E+00
  0.00000000E+00  0.00000000E+00  0.00000000E+00
  0.00000000E+00  0.00000000E+00  0.00000000E+00
  0.00000000E+00  0.00000000E+00  0.00000000E+00
  0.00000000E+00  0.00000000E+00  0.00000000E+00
  0.00000000E+00  0.00000000E+00  0.00000000E+00
  0.00000000E+00  0.00000000E+00  0.00000000E+00
  0.00000000E+00  0.00000000E+00  0.00000000E+00
  0.00000000E+00  0.00000000E+00  0.00000000E+00
  0.00000000E+00  0.00000000E+00  0.00000000E+00
  0.00000000E+00  0.00000000E+00  0.00000000E+00
  0.00000000E+00  0.00000000E+00  0.00000000E+00
  0.00000000E+00  0.00000000E+00  0.00000000E+00
  0.00000000E+00  0.00000000E+00  0.00000000E+00
  0.00000000E+00  0.00000000E+00  0.00000000E+00
  0.00000000E+00  0.00000000E+00  0.00000000E+00
  0.00000000E+00  0.00000000E+00  0.00000000E+00
  0.00000000E+00  0.00000000E+00  0.00000000E+00
  0.00000000E+00  0.00000000E+00  0.00000000E+00
  0.00000000E+00  0.00000000E+00  0.00000000E+00
  0.00000000E+00  0.00000000E+00  0.00000000E+00
  0.00000000E+00  0.00000000E+00  0.00000000E+00
  0.00000000E+00  0.00000000E+00  0.00000000E+00
  0.00000000E+00  0.00000000E+00  0.00000000E+00
  0.00000000E+00  0.00000000E+00  0.00000000E+00
  0.00000000E+00  0.00000000E+00  0.00000000E+00
  0.00000000E+00  0.00000000E+00  0.00000000E+00
  0.00000000E+00  0.00000000E+00  0.00000000E+00
  0.00000000E+00  0.00000000E+00  0.00000000E+00
  0.00000000E+00  0.00000000E+00  0.00000000E+00
  0.00000000E+00  0.00000000E+00  0.00000000E+00
  0.00000000E+00  0.00000000E+00  0.00000000E+00
  0.00000000E+00  0.00000000E+00  0.00000000E+00
  0.00000000E+00  0.00000000E+00  0.00000000E+00
  0.00000000E+00  0.00000000E+00  0.00000000E+00
  0.00000000E+00  0.00000000E+00  0.00000000E+00
  0.00000000E+00  0.00000000E+00  0.00000000E+00
  0.00000000E+00  0.00000000E+00  0.00000000E+00
  0.00000000E+00  0.00000000E+00  0.00000000E+00
  0.00000000E+00  0.00000000E+00  0.00000000E+00
  0.00000000E+00  0.00000000E+00  0.00000000E+00
  0.00000000E+00  0.00000000E+00  0.00000000E+00
  0.00000000E+00  0.00000000E+00  0.00000000E+00
  0.00000000E+00  0.00000000E+00  0.00000000E+00
  0.00000000E+00  0.00000000E+00  0.00000000E+00
  0.00000000E+00  0.00000000E+00  0.00000000E+00
  0.00000000E+00  0.00000000E+00  0.00000000E+00
  0.00000000E+00  0.00000000E+00  0.00000000E+00
  0.00000000E+00  0.00000000E+00  0.00000000E+00
  0.00000000E+00  0.00000000E+00  0.00000000E+00
  0.00000000E+00  0.00000000E+00  0.00000000E+00
  0.00000000E+00  0.00000000E+00  0.00000000E+00
  0.00000000E+00  0.00000000E+00  0.00000000E+00
  0.00000000E+00  0.00000000E+00  0.00000000E+00
  0.00000000E+00  0.00000000E+00  0.00000000E+00
  0.00000000E+00  0.00000000E+00  0.00000000E+00
  0.00000000E+00  0.00000000E+00  0.00000000E+00
  0.00000000E+00  0.00000000E+00  0.00000000E+00
  0.00000000E+00  0.00000000E+00  0.00000000E+00
  0.00000000E+00  0.00000000E+00  0.00000000E+00
  0.00000000E+00  0.00000000E+00  0.00000000E+00
  0.00000000E+00  0.00000000E+00  0.00000000E+00
  0.00000000E+00  0.00000000E+00  0.00000000E+00
  0.00000000E+00  0.00000000E+00  0.00000000E+00
  0.00000000E+00  0.00000000E+00  0.00000000E+00
  0.00000000E+00  0.00000000E+00  0.00000000E+00
  0.00000000E+00  0.00000000E+00  0.00000000E+00
  0.00000000E+00  0.00000000E+00  0.00000000E+00
  0.00000000E+00  0.00000000E+00  0.00000000E+00
  0.00000000E+00  0.00000000E+00  0.00000000E+00
  0.00000000E+00  0.00000000E+00  0.00000000E+00
  0.00000000E+00  0.00000000E+00  0.00000000E+00
