Zn2 O2                                  
    1.000000000000000     
    12.9943542480000005    0.0000000000000000    0.0000000000000000
    -6.4971766471999999   11.2534400587000007    0.0000000000000000
     0.0000000000000000    0.0000000000000000   15.6120386123999992
   Zn   O 
    96    95
Direct
  0.0835031406443118  0.1668957610046777  0.0028842863545829
  0.0839647699499756  0.1672236080430283  0.3362360618825072
  0.0839545100502933  0.1677055662649905  0.6683220306332636
  0.0835004444941127  0.4166091102976717  0.0028820648058466
  0.0839467469333987  0.4167635044175964  0.3362433290704961
  0.0839469205290672  0.4162579199022915  0.6683248274846659
  0.0834165014720153  0.6665844818218889  0.0024546735652740
  0.0833349966386222  0.6666728262752555  0.3359732231540901
  0.0833989424885454  0.6666029483106497  0.6692529361638007
  0.0834166844994615  0.9168334579989196  0.0024551113045057
  0.0833415274055686  0.9166831438111340  0.3359728549699650
  0.0834034232757004  0.9168069355513976  0.6692507921932223
  0.3333926423603677  0.1668957760046754  0.0028842963545837
  0.3332588600930475  0.1672236230430260  0.3362360618825072
  0.3337510852146890  0.1677055812649882  0.6683220306332636
  0.3333337848060663  0.4166675106121384  0.0024027026100044
  0.3333249867276379  0.4166499144552744  0.3472173951553555
  0.3333293499112815  0.4166586408225617  0.6700529984025586
  0.3333905305385196  0.6664969116933517  0.0028807178446038
  0.3332361018334259  0.6660175770259221  0.3362346737229021
  0.3337464124998608  0.6660406615395432  0.6683235859331295
  0.3334132765476986  0.9167086446043212  0.0025085502107019
  0.3335091790344746  0.9167536993729481  0.3361938990072427
  0.3335082812051072  0.9167534128547000  0.6689885571293251
  0.5832755002750452  0.1667269098989477  0.0024820017456372
  0.5833272156087781  0.1666786517054776  0.3360344118979401
  0.5833103444278366  0.1666939630688645  0.6691291444073265
  0.5831086728035559  0.4166091402976742  0.0028820648058466
  0.5828167644841947  0.4167635344175988  0.3362433290704961
  0.5823110063732213  0.4162579499022940  0.6683248274846659
  0.5831064101548310  0.6664969716933566  0.0028807178446038
  0.5827815041924952  0.6660176370259271  0.3362347037229045
  0.5822942780396811  0.6660407215395482  0.6683235859331295
  0.5832740603890922  0.9165481817782004  0.0024830079505947
  0.5833180759153112  0.9166362128306380  0.3360338961699130
  0.5833030879513379  0.9166061769026722  0.6691267899546355
  0.8334514386239014  0.1667269098989477  0.0024820117456381
  0.8333514650966984  0.1666786517054776  0.3360344118979401
  0.8333836476410268  0.1666939630688645  0.6691291444073265
  0.8332941827478577  0.4165883964957287  0.0025083139636641
  0.8332491517925821  0.4164983345851774  0.3361959079681672
  0.8332470995493307  0.4164942300986749  0.6689952869927233
  0.8331679273498586  0.6665844818218889  0.0024546835652748
  0.8333377766366253  0.6666728262752555  0.3359732231540901
  0.8332039528220964  0.6666029483106497  0.6692529361638007
  0.8332953370566166  0.9167086446043212  0.0025085502107019
  0.8332444893384604  0.9167536993729481  0.3361938990072427
  0.8332451606495918  0.9167534728547050  0.6689885571293251
  0.9166433292251579  0.8333570938806357  0.1692816494494468
  0.9165806224346493  0.8334367113959820  0.5025872845639229
  0.9166424619260811  0.8333556255958798  0.8358933113573422
  0.9169120167956458  0.0835168747903646  0.1693702943727854
  0.9183470810145801  0.0847979370557270  0.5023632114858400
  0.9169461288738155  0.0834428740449823  0.8356820473527121
  0.9169060992686457  0.3333927815825414  0.1693696221199118
  0.9183228112485945  0.3335362902730574  0.5023696718163451
  0.9169503015166071  0.3335053894827479  0.8356865923616664
  0.9166415467595562  0.5832828555191141  0.1692811531337313
  0.9165667396820129  0.5831332413640415  0.5025894354482571
  0.9166411036703017  0.5832819693406120  0.8358954482856926
  0.1667138846554805  0.8333570938806357  0.1692816494494468
  0.1668562089613354  0.8334367113959820  0.5025872845639229
  0.1667132836698015  0.8333556255958798  0.8358933113573422
  0.1667403071289431  0.0834803382578848  0.1694042764629408
  0.1670293043068464  0.0840583326136912  0.5025828166200268
  0.1668383409571390  0.0836764059142765  0.8355810175179396
  0.1680582575382158  0.3340374755740967  0.1707493217928522
  0.1798475455710411  0.3399529375628610  0.4995266429562288
  0.1664498847944736  0.3332244699993530  0.8360442972390225
  0.1667318634100592  0.5832591072736234  0.1694022624329128
  0.1669982846373871  0.5829831482570149  0.5025891129622622
  0.1668354435408297  0.5831602515786385  0.8355799173908864
  0.4165998876345494  0.8330830580165114  0.1693698790057080
  0.4164323671789121  0.8316364645421168  0.5023580021808983
  0.4164956090291708  0.8330521333270852  0.8356812975551663
  0.4166050149947139  0.0835168747903646  0.1693702943727854
  0.4164510130411421  0.0847979370557270  0.5023632114858400
  0.4164969021711690  0.0834428740449823  0.8356820473527121
  0.4159794260358697  0.3340374455740943  0.1707493217928522
  0.4101055999918158  0.3399529075628586  0.4995266429562288
  0.4167747932048753  0.3332244399993505  0.8360442972390225
  0.4159664129011654  0.5819326478023374  0.1707463499316184
  0.4100624335083137  0.5701246890166269  0.4995204536542314
  0.4167738284065448  0.5835474788130820  0.8360417001373189
  0.6664832603819696  0.8330830580165114  0.1693698790057080
  0.6652041873632123  0.8316364645421168  0.5023580021808983
  0.6665566142979218  0.8330521333270852  0.8356812975551663
  0.6666649045437564  0.0833295630875137  0.1691562739636557
  0.6666605658898797  0.0833208857797745  0.5025098002969598
  0.6666653042880862  0.0833303625761877  0.8358603843733251
  0.6664868323139080  0.3333928115825439  0.1693696221199118
  0.6652136880244623  0.3335363202730598  0.5023696718163451
  0.6665552969661406  0.3335054194827504  0.8356865923616664
  0.6665274968635603  0.5832591072736234  0.1694022624329128
  0.6659851166196239  0.5829831482570149  0.5025891129622622
  0.6663250610377978  0.5831602515786385  0.8355799173908864
  0.0837769834004020  0.1673941927580872  0.1302071889173334
  0.0863026036313372  0.1704604506672635  0.4635029907423772
  0.0835594583550375  0.1670507950071397  0.7956608357544056
  0.0837656444145831  0.4163907589578869  0.1302029659696555
  0.0862632518210052  0.4158731457646358  0.4635064092254396
  0.0835571854877635  0.4165146545315527  0.7956619408000177
  0.0834090071747539  0.6665952449232067  0.1297563543532920
  0.0835979117918895  0.6664063913434448  0.4631529049065874
  0.0833866824848629  0.6666137277916301  0.7964268147538833
  0.0834127555048709  0.9168255120097455  0.1297577690604574
  0.0836174527352127  0.9172349944704222  0.4631528892269156
  0.0833898247910820  0.9167796505821676  0.7964256579622151
  0.3336172233576863  0.1673941927580872  0.1302071889173334
  0.3341578760359251  0.1704604656672612  0.4635029907423772
  0.3334913506521033  0.1670507950071397  0.7956608357544056
  0.3333327984211231  0.4166655378422520  0.1292738348552075
  0.3333343102876917  0.4166685615753822  0.7964542961266854
  0.3336061795331049  0.6662240276717062  0.1302043852646065
  0.3340969901327752  0.6636787147924865  0.4635017379361063
  0.3334862079027797  0.6664436631720090  0.7956611619491839
  0.3334802751682430  0.9167429839850306  0.1298257696510094
  0.3338632860653076  0.9169374239214295  0.4633722385544678
  0.3333689255261629  0.9166861013649344  0.7962540249771124
  0.5832910452375286  0.1667135842426141  0.1297780095325350
  0.5832204576074693  0.1667803435637234  0.4630247143745090
  0.5833056856123529  0.1667012824311904  0.7963255415405525
  0.5826251215433079  0.4163907889578894  0.1302029809696603
  0.5796099009436206  0.4158731757646383  0.4635064392254350
  0.5829574760437862  0.4165146845315552  0.7956619408000177
  0.5826178771386075  0.6662240876717112  0.1302043852646065
  0.5795817536597101  0.6636787747924915  0.4635017379361063
  0.5829574842692211  0.6664437231720139  0.7956611619491839
  0.5832875730347816  0.9165751470695742  0.1297800235756594
  0.5832072975209350  0.9164145960418668  0.4630251802991500
  0.5833024860702749  0.9166049731405536  0.7963228738298188
  0.8334225680050844  0.1667135842426141  0.1297779945325302
  0.8335599149562530  0.1667803435637234  0.4630246843745136
  0.8333956258188364  0.1667012824311904  0.7963255415405525
  0.8332622466941667  0.4165245243883398  0.1298231887135885
  0.8330671980081592  0.4161344270163244  0.4633726434139862
  0.8333162268397075  0.4166324846794141  0.7962573394077246
  0.8331861847484450  0.6665952449232067  0.1297563543532920
  0.8328084265515474  0.6664063913434448  0.4631529049065874
  0.8332269923067592  0.6666137277916301  0.7964268147538833
  0.8332627378167864  0.9167429839850306  0.1298257696510094
  0.8330741668561208  0.9169374839214345  0.4633722385544678
  0.8333172048387776  0.9166861013649344  0.7962540249771124
  0.9166198263592263  0.8333873934237146  0.2964958855147747
  0.9166789678351035  0.8333200846919487  0.6296979037482482
  0.9166515708502059  0.8333431523286734  0.9630883802968926
  0.9172596766830177  0.0836827713967073  0.2966688222479702
  0.9169750270667215  0.0835765282632982  0.6295367252686721
  0.9169011887973781  0.0834291993992604  0.9629810716871555
  0.9172521936628260  0.3335754907346640  0.2966665823080302
  0.9169698337922007  0.3333945591583147  0.6295401913397664
  0.9169007680620491  0.3334700539181158  0.9629793591242704
  0.9166146319194091  0.5832290258388197  0.2964945929236012
  0.9166749523975487  0.5833496667951061  0.6296993758843266
  0.9166507393458103  0.5833012406916223  0.9630885334884615
  0.1667676870644911  0.8333873934237146  0.2964958855147747
  0.1666412368568481  0.8333200846919487  0.6296979037482482
  0.1666917014784703  0.8333431523286734  0.9630883802968926
  0.1666832265890127  0.0833661771780167  0.2965986959142527
  0.1666965040640399  0.0833927321280783  0.6296292771827717
  0.1668006798398498  0.0836011136797006  0.9629270533325142
  0.1698601116035571  0.3349530168668421  0.2983284011787165
  0.1682946115342070  0.3341574288076370  0.6271667716210250
  0.1666491811445361  0.3333238156966532  0.9629284128722008
  0.1666674513344001  0.5833217126629635  0.2965942046142255
  0.1666886197044135  0.5833026960368456  0.6296344059115185
  0.1667975002276408  0.5831944461998255  0.9629247957339049
  0.4164103579060967  0.8327189311864841  0.2966697522508795
  0.4165949893142073  0.8330123454519207  0.6295334898465365
  0.4165250700439134  0.8330914052408851  0.9629796827519981
  0.4164232517136920  0.0836827713967073  0.2966688222479702
  0.4166016581965790  0.0835765282632982  0.6295367252686721
  0.4165281676018845  0.0834291993992604  0.9629810716871555
  0.4150931132632809  0.3349529868668396  0.2983284011787165
  0.4158630252734331  0.3341573988076345  0.6271667716210250
  0.4166748425521129  0.3333237856966507  0.9629284128722008
  0.4150473738919040  0.5800945697838005  0.2983261179996516
  0.4158410833318913  0.5816819886637893  0.6271641061810195
  0.4166729669321094  0.5833457558642254  0.9629260120388411
  0.6663086632804022  0.8327189311864841  0.2966697522508795
  0.6664174461377209  0.8330123454519207  0.6295334898465365
  0.6665664251969792  0.8330914052408851  0.9629796827519981
  0.6666608374066314  0.0833214288132710  0.2963747883621289
  0.6666623965859653  0.0833245471719388  0.6297068654254183
  0.6666639980839560  0.0833277501679200  0.9630910084762359
  0.6663235060718377  0.3335755207346665  0.2966665823080302
  0.6664249343661135  0.3333945891583172  0.6295401913397664
  0.6665694358560720  0.3334700839181183  0.9629793591242704
  0.6666544553285654  0.5833217126629635  0.2965942046142255
  0.6666142703324339  0.5833026960368456  0.6296344059115185
  0.6663971399721865  0.5831944461998255  0.9629247957339049
 
  0.00000000E+00  0.00000000E+00  0.00000000E+00
  0.00000000E+00  0.00000000E+00  0.00000000E+00
  0.00000000E+00  0.00000000E+00  0.00000000E+00
  0.00000000E+00  0.00000000E+00  0.00000000E+00
  0.00000000E+00  0.00000000E+00  0.00000000E+00
  0.00000000E+00  0.00000000E+00  0.00000000E+00
  0.00000000E+00  0.00000000E+00  0.00000000E+00
  0.00000000E+00  0.00000000E+00  0.00000000E+00
  0.00000000E+00  0.00000000E+00  0.00000000E+00
  0.00000000E+00  0.00000000E+00  0.00000000E+00
  0.00000000E+00  0.00000000E+00  0.00000000E+00
  0.00000000E+00  0.00000000E+00  0.00000000E+00
  0.00000000E+00  0.00000000E+00  0.00000000E+00
  0.00000000E+00  0.00000000E+00  0.00000000E+00
  0.00000000E+00  0.00000000E+00  0.00000000E+00
  0.00000000E+00  0.00000000E+00  0.00000000E+00
  0.00000000E+00  0.00000000E+00  0.00000000E+00
  0.00000000E+00  0.00000000E+00  0.00000000E+00
  0.00000000E+00  0.00000000E+00  0.00000000E+00
  0.00000000E+00  0.00000000E+00  0.00000000E+00
  0.00000000E+00  0.00000000E+00  0.00000000E+00
  0.00000000E+00  0.00000000E+00  0.00000000E+00
  0.00000000E+00  0.00000000E+00  0.00000000E+00
  0.00000000E+00  0.00000000E+00  0.00000000E+00
  0.00000000E+00  0.00000000E+00  0.00000000E+00
  0.00000000E+00  0.00000000E+00  0.00000000E+00
  0.00000000E+00  0.00000000E+00  0.00000000E+00
  0.00000000E+00  0.00000000E+00  0.00000000E+00
  0.00000000E+00  0.00000000E+00  0.00000000E+00
  0.00000000E+00  0.00000000E+00  0.00000000E+00
  0.00000000E+00  0.00000000E+00  0.00000000E+00
  0.00000000E+00  0.00000000E+00  0.00000000E+00
  0.00000000E+00  0.00000000E+00  0.00000000E+00
  0.00000000E+00  0.00000000E+00  0.00000000E+00
  0.00000000E+00  0.00000000E+00  0.00000000E+00
  0.00000000E+00  0.00000000E+00  0.00000000E+00
  0.00000000E+00  0.00000000E+00  0.00000000E+00
  0.00000000E+00  0.00000000E+00  0.00000000E+00
  0.00000000E+00  0.00000000E+00  0.00000000E+00
  0.00000000E+00  0.00000000E+00  0.00000000E+00
  0.00000000E+00  0.00000000E+00  0.00000000E+00
  0.00000000E+00  0.00000000E+00  0.00000000E+00
  0.00000000E+00  0.00000000E+00  0.00000000E+00
  0.00000000E+00  0.00000000E+00  0.00000000E+00
  0.00000000E+00  0.00000000E+00  0.00000000E+00
  0.00000000E+00  0.00000000E+00  0.00000000E+00
  0.00000000E+00  0.00000000E+00  0.00000000E+00
  0.00000000E+00  0.00000000E+00  0.00000000E+00
  0.00000000E+00  0.00000000E+00  0.00000000E+00
  0.00000000E+00  0.00000000E+00  0.00000000E+00
  0.00000000E+00  0.00000000E+00  0.00000000E+00
  0.00000000E+00  0.00000000E+00  0.00000000E+00
  0.00000000E+00  0.00000000E+00  0.00000000E+00
  0.00000000E+00  0.00000000E+00  0.00000000E+00
  0.00000000E+00  0.00000000E+00  0.00000000E+00
  0.00000000E+00  0.00000000E+00  0.00000000E+00
  0.00000000E+00  0.00000000E+00  0.00000000E+00
  0.00000000E+00  0.00000000E+00  0.00000000E+00
  0.00000000E+00  0.00000000E+00  0.00000000E+00
  0.00000000E+00  0.00000000E+00  0.00000000E+00
  0.00000000E+00  0.00000000E+00  0.00000000E+00
  0.00000000E+00  0.00000000E+00  0.00000000E+00
  0.00000000E+00  0.00000000E+00  0.00000000E+00
  0.00000000E+00  0.00000000E+00  0.00000000E+00
  0.00000000E+00  0.00000000E+00  0.00000000E+00
  0.00000000E+00  0.00000000E+00  0.00000000E+00
  0.00000000E+00  0.00000000E+00  0.00000000E+00
  0.00000000E+00  0.00000000E+00  0.00000000E+00
  0.00000000E+00  0.00000000E+00  0.00000000E+00
  0.00000000E+00  0.00000000E+00  0.00000000E+00
  0.00000000E+00  0.00000000E+00  0.00000000E+00
  0.00000000E+00  0.00000000E+00  0.00000000E+00
  0.00000000E+00  0.00000000E+00  0.00000000E+00
  0.00000000E+00  0.00000000E+00  0.00000000E+00
  0.00000000E+00  0.00000000E+00  0.00000000E+00
  0.00000000E+00  0.00000000E+00  0.00000000E+00
  0.00000000E+00  0.00000000E+00  0.00000000E+00
  0.00000000E+00  0.00000000E+00  0.00000000E+00
  0.00000000E+00  0.00000000E+00  0.00000000E+00
  0.00000000E+00  0.00000000E+00  0.00000000E+00
  0.00000000E+00  0.00000000E+00  0.00000000E+00
  0.00000000E+00  0.00000000E+00  0.00000000E+00
  0.00000000E+00  0.00000000E+00  0.00000000E+00
  0.00000000E+00  0.00000000E+00  0.00000000E+00
  0.00000000E+00  0.00000000E+00  0.00000000E+00
  0.00000000E+00  0.00000000E+00  0.00000000E+00
  0.00000000E+00  0.00000000E+00  0.00000000E+00
  0.00000000E+00  0.00000000E+00  0.00000000E+00
  0.00000000E+00  0.00000000E+00  0.00000000E+00
  0.00000000E+00  0.00000000E+00  0.00000000E+00
  0.00000000E+00  0.00000000E+00  0.00000000E+00
  0.00000000E+00  0.00000000E+00  0.00000000E+00
  0.00000000E+00  0.00000000E+00  0.00000000E+00
  0.00000000E+00  0.00000000E+00  0.00000000E+00
  0.00000000E+00  0.00000000E+00  0.00000000E+00
  0.00000000E+00  0.00000000E+00  0.00000000E+00
  0.00000000E+00  0.00000000E+00  0.00000000E+00
  0.00000000E+00  0.00000000E+00  0.00000000E+00
  0.00000000E+00  0.00000000E+00  0.00000000E+00
  0.00000000E+00  0.00000000E+00  0.00000000E+00
  0.00000000E+00  0.00000000E+00  0.00000000E+00
  0.00000000E+00  0.00000000E+00  0.00000000E+00
  0.00000000E+00  0.00000000E+00  0.00000000E+00
  0.00000000E+00  0.00000000E+00  0.00000000E+00
  0.00000000E+00  0.00000000E+00  0.00000000E+00
  0.00000000E+00  0.00000000E+00  0.00000000E+00
  0.00000000E+00  0.00000000E+00  0.00000000E+00
  0.00000000E+00  0.00000000E+00  0.00000000E+00
  0.00000000E+00  0.00000000E+00  0.00000000E+00
  0.00000000E+00  0.00000000E+00  0.00000000E+00
  0.00000000E+00  0.00000000E+00  0.00000000E+00
  0.00000000E+00  0.00000000E+00  0.00000000E+00
  0.00000000E+00  0.00000000E+00  0.00000000E+00
  0.00000000E+00  0.00000000E+00  0.00000000E+00
  0.00000000E+00  0.00000000E+00  0.00000000E+00
  0.00000000E+00  0.00000000E+00  0.00000000E+00
  0.00000000E+00  0.00000000E+00  0.00000000E+00
  0.00000000E+00  0.00000000E+00  0.00000000E+00
  0.00000000E+00  0.00000000E+00  0.00000000E+00
  0.00000000E+00  0.00000000E+00  0.00000000E+00
  0.00000000E+00  0.00000000E+00  0.00000000E+00
  0.00000000E+00  0.00000000E+00  0.00000000E+00
  0.00000000E+00  0.00000000E+00  0.00000000E+00
  0.00000000E+00  0.00000000E+00  0.00000000E+00
  0.00000000E+00  0.00000000E+00  0.00000000E+00
  0.00000000E+00  0.00000000E+00  0.00000000E+00
  0.00000000E+00  0.00000000E+00  0.00000000E+00
  0.00000000E+00  0.00000000E+00  0.00000000E+00
  0.00000000E+00  0.00000000E+00  0.00000000E+00
  0.00000000E+00  0.00000000E+00  0.00000000E+00
  0.00000000E+00  0.00000000E+00  0.00000000E+00
  0.00000000E+00  0.00000000E+00  0.00000000E+00
  0.00000000E+00  0.00000000E+00  0.00000000E+00
  0.00000000E+00  0.00000000E+00  0.00000000E+00
  0.00000000E+00  0.00000000E+00  0.00000000E+00
  0.00000000E+00  0.00000000E+00  0.00000000E+00
  0.00000000E+00  0.00000000E+00  0.00000000E+00
  0.00000000E+00  0.00000000E+00  0.00000000E+00
  0.00000000E+00  0.00000000E+00  0.00000000E+00
  0.00000000E+00  0.00000000E+00  0.00000000E+00
  0.00000000E+00  0.00000000E+00  0.00000000E+00
  0.00000000E+00  0.00000000E+00  0.00000000E+00
  0.00000000E+00  0.00000000E+00  0.00000000E+00
  0.00000000E+00  0.00000000E+00  0.00000000E+00
  0.00000000E+00  0.00000000E+00  0.00000000E+00
  0.00000000E+00  0.00000000E+00  0.00000000E+00
  0.00000000E+00  0.00000000E+00  0.00000000E+00
  0.00000000E+00  0.00000000E+00  0.00000000E+00
  0.00000000E+00  0.00000000E+00  0.00000000E+00
  0.00000000E+00  0.00000000E+00  0.00000000E+00
  0.00000000E+00  0.00000000E+00  0.00000000E+00
  0.00000000E+00  0.00000000E+00  0.00000000E+00
  0.00000000E+00  0.00000000E+00  0.00000000E+00
  0.00000000E+00  0.00000000E+00  0.00000000E+00
  0.00000000E+00  0.00000000E+00  0.00000000E+00
  0.00000000E+00  0.00000000E+00  0.00000000E+00
  0.00000000E+00  0.00000000E+00  0.00000000E+00
  0.00000000E+00  0.00000000E+00  0.00000000E+00
  0.00000000E+00  0.00000000E+00  0.00000000E+00
  0.00000000E+00  0.00000000E+00  0.00000000E+00
  0.00000000E+00  0.00000000E+00  0.00000000E+00
  0.00000000E+00  0.00000000E+00  0.00000000E+00
  0.00000000E+00  0.00000000E+00  0.00000000E+00
  0.00000000E+00  0.00000000E+00  0.00000000E+00
  0.00000000E+00  0.00000000E+00  0.00000000E+00
  0.00000000E+00  0.00000000E+00  0.00000000E+00
  0.00000000E+00  0.00000000E+00  0.00000000E+00
  0.00000000E+00  0.00000000E+00  0.00000000E+00
  0.00000000E+00  0.00000000E+00  0.00000000E+00
  0.00000000E+00  0.00000000E+00  0.00000000E+00
  0.00000000E+00  0.00000000E+00  0.00000000E+00
  0.00000000E+00  0.00000000E+00  0.00000000E+00
  0.00000000E+00  0.00000000E+00  0.00000000E+00
  0.00000000E+00  0.00000000E+00  0.00000000E+00
  0.00000000E+00  0.00000000E+00  0.00000000E+00
  0.00000000E+00  0.00000000E+00  0.00000000E+00
  0.00000000E+00  0.00000000E+00  0.00000000E+00
  0.00000000E+00  0.00000000E+00  0.00000000E+00
  0.00000000E+00  0.00000000E+00  0.00000000E+00
  0.00000000E+00  0.00000000E+00  0.00000000E+00
  0.00000000E+00  0.00000000E+00  0.00000000E+00
  0.00000000E+00  0.00000000E+00  0.00000000E+00
  0.00000000E+00  0.00000000E+00  0.00000000E+00
  0.00000000E+00  0.00000000E+00  0.00000000E+00
  0.00000000E+00  0.00000000E+00  0.00000000E+00
  0.00000000E+00  0.00000000E+00  0.00000000E+00
  0.00000000E+00  0.00000000E+00  0.00000000E+00
  0.00000000E+00  0.00000000E+00  0.00000000E+00
  0.00000000E+00  0.00000000E+00  0.00000000E+00
  0.00000000E+00  0.00000000E+00  0.00000000E+00
  0.00000000E+00  0.00000000E+00  0.00000000E+00
