generated by phonopy
   1.0
    12.8424276255070922   -0.0000000000268784    0.0000000000000000
    -6.4212138108002081   11.1218685671337241    0.0000000000000000
     0.0000000000000000    0.0000000000000000   15.5386108145111059
Zn O
  96   96
Direct
  0.1666667499999992  0.0833332500000008  0.1671286809081959
  0.4166667499999992  0.0833332500000008  0.1671286809081959
  0.6666667499999992  0.0833332500000008  0.1671286809081959
  0.9166667499999992  0.0833332500000008  0.1671286809081959
  0.1666667499999992  0.3333332500000008  0.1671286809081959
  0.4166667499999992  0.3333332500000008  0.1671286809081959
  0.6666667499999992  0.3333332500000008  0.1671286809081959
  0.9166667499999992  0.3333332500000008  0.1671286809081959
  0.1666667499999992  0.5833332500000008  0.1671286809081959
  0.4166667499999992  0.5833332500000008  0.1671286809081959
  0.6666667499999992  0.5833332500000008  0.1671286809081959
  0.9166667499999992  0.5833332500000008  0.1671286809081959
  0.1666667499999992  0.8333332500000008  0.1671286809081959
  0.4166667499999992  0.8333332500000008  0.1671286809081959
  0.6666667499999992  0.8333332500000008  0.1671286809081959
  0.9166667499999992  0.8333332500000008  0.1671286809081959
  0.1666667499999992  0.0833332500000008  0.5004620142415291
  0.4166667499999992  0.0833332500000008  0.5004620142415291
  0.6666667499999992  0.0833332500000008  0.5004620142415291
  0.9166667499999992  0.0833332500000008  0.5004620142415291
  0.1666667499999992  0.3333332500000008  0.5004620142415291
  0.4166667499999992  0.3333332500000008  0.5004620142415291
  0.6666667499999992  0.3333332500000008  0.5004620142415291
  0.9166667499999992  0.3333332500000008  0.5004620142415291
  0.1666667499999992  0.5833332500000008  0.5004620142415291
  0.4166667499999992  0.5833332500000008  0.5004620142415291
  0.6666667499999992  0.5833332500000008  0.5004620142415291
  0.9166667499999992  0.5833332500000008  0.5004620142415291
  0.1666667499999992  0.8333332500000008  0.5004620142415291
  0.4166667499999992  0.8333332500000008  0.5004620142415291
  0.6666667499999992  0.8333332500000008  0.5004620142415291
  0.9166667499999992  0.8333332500000008  0.5004620142415291
  0.1666667499999992  0.0833332500000008  0.8337953475748625
  0.4166667499999992  0.0833332500000008  0.8337953475748625
  0.6666667499999992  0.0833332500000008  0.8337953475748625
  0.9166667499999992  0.0833332500000008  0.8337953475748625
  0.1666667499999992  0.3333332500000008  0.8337953475748625
  0.4166667499999992  0.3333332500000008  0.8337953475748625
  0.6666667499999992  0.3333332500000008  0.8337953475748625
  0.9166667499999992  0.3333332500000008  0.8337953475748625
  0.1666667499999992  0.5833332500000008  0.8337953475748625
  0.4166667499999992  0.5833332500000008  0.8337953475748625
  0.6666667499999992  0.5833332500000008  0.8337953475748625
  0.9166667499999992  0.5833332500000008  0.8337953475748625
  0.1666667499999992  0.8333332500000008  0.8337953475748625
  0.4166667499999992  0.8333332500000008  0.8337953475748625
  0.6666667499999992  0.8333332500000008  0.8337953475748625
  0.9166667499999992  0.8333332500000008  0.8337953475748625
  0.0833332500000008  0.1666667499999992  0.0004620142415292
  0.3333332500000008  0.1666667499999992  0.0004620142415292
  0.5833332500000008  0.1666667499999992  0.0004620142415292
  0.8333332500000008  0.1666667499999992  0.0004620142415292
  0.0833332500000008  0.4166667499999992  0.0004620142415292
  0.3333332500000008  0.4166667499999992  0.0004620142415292
  0.5833332500000008  0.4166667499999992  0.0004620142415292
  0.8333332500000008  0.4166667499999992  0.0004620142415292
  0.0833332500000008  0.6666667499999992  0.0004620142415292
  0.3333332500000008  0.6666667499999992  0.0004620142415292
  0.5833332500000008  0.6666667499999992  0.0004620142415292
  0.8333332500000008  0.6666667499999992  0.0004620142415292
  0.0833332500000008  0.9166667499999992  0.0004620142415292
  0.3333332500000008  0.9166667499999992  0.0004620142415292
  0.5833332500000008  0.9166667499999992  0.0004620142415292
  0.8333332500000008  0.9166667499999992  0.0004620142415292
  0.0833332500000008  0.1666667499999992  0.3337953475748625
  0.3333332500000008  0.1666667499999992  0.3337953475748625
  0.5833332500000008  0.1666667499999992  0.3337953475748625
  0.8333332500000008  0.1666667499999992  0.3337953475748625
  0.0833332500000008  0.4166667499999992  0.3337953475748625
  0.3333332500000008  0.4166667499999992  0.3337953475748625
  0.5833332500000008  0.4166667499999992  0.3337953475748625
  0.8333332500000008  0.4166667499999992  0.3337953475748625
  0.0833332500000008  0.6666667499999992  0.3337953475748625
  0.3333332500000008  0.6666667499999992  0.3337953475748625
  0.5833332500000008  0.6666667499999992  0.3337953475748625
  0.8333332500000008  0.6666667499999992  0.3337953475748625
  0.0833332500000008  0.9166667499999992  0.3337953475748625
  0.3333332500000008  0.9166667499999992  0.3337953475748625
  0.5833332500000008  0.9166667499999992  0.3337953475748625
  0.8333332500000008  0.9166667499999992  0.3337953475748625
  0.0833332500000008  0.1666667499999992  0.6671286809081958
  0.3333332500000008  0.1666667499999992  0.6671286809081958
  0.5833332500000008  0.1666667499999992  0.6671286809081958
  0.8333332500000008  0.1666667499999992  0.6671286809081958
  0.0833332500000008  0.4166667499999992  0.6671286809081958
  0.3333332500000008  0.4166667499999992  0.6671286809081958
  0.5833332500000008  0.4166667499999992  0.6671286809081958
  0.8333332500000008  0.4166667499999992  0.6671286809081958
  0.0833332500000008  0.6666667499999992  0.6671286809081958
  0.3333332500000008  0.6666667499999992  0.6671286809081958
  0.5833332500000008  0.6666667499999992  0.6671286809081958
  0.8333332500000008  0.6666667499999992  0.6671286809081958
  0.0833332500000008  0.9166667499999992  0.6671286809081958
  0.3333332500000008  0.9166667499999992  0.6671286809081958
  0.5833332500000008  0.9166667499999992  0.6671286809081958
  0.8333332500000008  0.9166667499999992  0.6671286809081958
  0.1666667499999992  0.0833332500000008  0.2934379857584691
  0.4166667499999992  0.0833332500000008  0.2934379857584691
  0.6666667499999992  0.0833332500000008  0.2934379857584691
  0.9166667499999992  0.0833332500000008  0.2934379857584691
  0.1666667499999992  0.3333332500000008  0.2934379857584691
  0.4166667499999992  0.3333332500000008  0.2934379857584691
  0.6666667499999992  0.3333332500000008  0.2934379857584691
  0.9166667499999992  0.3333332500000008  0.2934379857584691
  0.1666667499999992  0.5833332500000008  0.2934379857584691
  0.4166667499999992  0.5833332500000008  0.2934379857584691
  0.6666667499999992  0.5833332500000008  0.2934379857584691
  0.9166667499999992  0.5833332500000008  0.2934379857584691
  0.1666667499999992  0.8333332500000008  0.2934379857584691
  0.4166667499999992  0.8333332500000008  0.2934379857584691
  0.6666667499999992  0.8333332500000008  0.2934379857584691
  0.9166667499999992  0.8333332500000008  0.2934379857584691
  0.1666667499999992  0.0833332500000008  0.6267713190918025
  0.4166667499999992  0.0833332500000008  0.6267713190918025
  0.6666667499999992  0.0833332500000008  0.6267713190918025
  0.9166667499999992  0.0833332500000008  0.6267713190918025
  0.1666667499999992  0.3333332500000008  0.6267713190918025
  0.4166667499999992  0.3333332500000008  0.6267713190918025
  0.6666667499999992  0.3333332500000008  0.6267713190918025
  0.9166667499999992  0.3333332500000008  0.6267713190918025
  0.1666667499999992  0.5833332500000008  0.6267713190918025
  0.4166667499999992  0.5833332500000008  0.6267713190918025
  0.6666667499999992  0.5833332500000008  0.6267713190918025
  0.9166667499999992  0.5833332500000008  0.6267713190918025
  0.1666667499999992  0.8333332500000008  0.6267713190918025
  0.4166667499999992  0.8333332500000008  0.6267713190918025
  0.6666667499999992  0.8333332500000008  0.6267713190918025
  0.9166667499999992  0.8333332500000008  0.6267713190918025
  0.1666667499999992  0.0833332500000008  0.9601046524251358
  0.4166667499999992  0.0833332500000008  0.9601046524251358
  0.6666667499999992  0.0833332500000008  0.9601046524251358
  0.9166667499999992  0.0833332500000008  0.9601046524251358
  0.1666667499999992  0.3333332500000008  0.9601046524251358
  0.4166667499999992  0.3333332500000008  0.9601046524251358
  0.6666667499999992  0.3333332500000008  0.9601046524251358
  0.9166667499999992  0.3333332500000008  0.9601046524251358
  0.1666667499999992  0.5833332500000008  0.9601046524251358
  0.4166667499999992  0.5833332500000008  0.9601046524251358
  0.6666667499999992  0.5833332500000008  0.9601046524251358
  0.9166667499999992  0.5833332500000008  0.9601046524251358
  0.1666667499999992  0.8333332500000008  0.9601046524251358
  0.4166667499999992  0.8333332500000008  0.9601046524251358
  0.6666667499999992  0.8333332500000008  0.9601046524251358
  0.9166667499999992  0.8333332500000008  0.9601046524251358
  0.0833332500000008  0.1666667499999992  0.1267713190918026
  0.3333332500000008  0.1666667499999992  0.1267713190918026
  0.5833332500000008  0.1666667499999992  0.1267713190918026
  0.8333332500000008  0.1666667499999992  0.1267713190918026
  0.0833332500000008  0.4166667499999992  0.1267713190918026
  0.3333332500000008  0.4166667499999992  0.1267713190918026
  0.5833332500000008  0.4166667499999992  0.1267713190918026
  0.8333332500000008  0.4166667499999992  0.1267713190918026
  0.0833332500000008  0.6666667499999992  0.1267713190918026
  0.3333332500000008  0.6666667499999992  0.1267713190918026
  0.5833332500000008  0.6666667499999992  0.1267713190918026
  0.8333332500000008  0.6666667499999992  0.1267713190918026
  0.0833332500000008  0.9166667499999992  0.1267713190918026
  0.3333332500000008  0.9166667499999992  0.1267713190918026
  0.5833332500000008  0.9166667499999992  0.1267713190918026
  0.8333332500000008  0.9166667499999992  0.1267713190918026
  0.0833332500000008  0.1666667499999992  0.4601046524251359
  0.3333332500000008  0.1666667499999992  0.4601046524251359
  0.5833332500000008  0.1666667499999992  0.4601046524251359
  0.8333332500000008  0.1666667499999992  0.4601046524251359
  0.0833332500000008  0.4166667499999992  0.4601046524251359
  0.3333332500000008  0.4166667499999992  0.4601046524251359
  0.5833332500000008  0.4166667499999992  0.4601046524251359
  0.8333332500000008  0.4166667499999992  0.4601046524251359
  0.0833332500000008  0.6666667499999992  0.4601046524251359
  0.3333332500000008  0.6666667499999992  0.4601046524251359
  0.5833332500000008  0.6666667499999992  0.4601046524251359
  0.8333332500000008  0.6666667499999992  0.4601046524251359
  0.0833332500000008  0.9166667499999992  0.4601046524251359
  0.3333332500000008  0.9166667499999992  0.4601046524251359
  0.5833332500000008  0.9166667499999992  0.4601046524251359
  0.8333332500000008  0.9166667499999992  0.4601046524251359
  0.0833332500000008  0.1666667499999992  0.7934379857584691
  0.3333332500000008  0.1666667499999992  0.7934379857584691
  0.5833332500000008  0.1666667499999992  0.7934379857584691
  0.8333332500000008  0.1666667499999992  0.7934379857584691
  0.0833332500000008  0.4166667499999992  0.7934379857584691
  0.3333332500000008  0.4166667499999992  0.7934379857584691
  0.5833332500000008  0.4166667499999992  0.7934379857584691
  0.8333332500000008  0.4166667499999992  0.7934379857584691
  0.0833332500000008  0.6666667499999992  0.7934379857584691
  0.3333332500000008  0.6666667499999992  0.7934379857584691
  0.5833332500000008  0.6666667499999992  0.7934379857584691
  0.8333332500000008  0.6666667499999992  0.7934379857584691
  0.0833332500000008  0.9166667499999992  0.7934379857584691
  0.3333332500000008  0.9166667499999992  0.7934379857584691
  0.5833332500000008  0.9166667499999992  0.7934379857584691
  0.8333332500000008  0.9166667499999992  0.7934379857584691
