  Zn2 O2                                
   1.00000000000000     
    12.9943542480000005    0.0000000000000000    0.0000000000000000
    -6.4971766471999999   11.2534400587000007    0.0000000000000000
     0.0000000000000000    0.0000000000000000   15.6120386123999992
   Zn   O    Mo
    95    95     1
Direct
  0.1665893601062896  0.0834106478937110  0.1654629062588673
  0.1667259680214444  0.0832740399785562  0.4997352872855916
  0.1665187131753488  0.0834812948246518  0.8337203277626717
  0.1660632020852011  0.3330316080425976  0.1656254995481270
  0.1650693522777945  0.3325346831389014  0.4995540033940088
  0.1663242677964605  0.3331621408982308  0.8337156096093770
  0.1665893601062896  0.5831786892125732  0.1654629062588673
  0.1667259680214444  0.5834519050428969  0.4997352872855916
  0.1665187131753488  0.5830373953506918  0.8337203277626717
  0.1669694406569541  0.8334846973284786  0.1654534448939001
  0.1679126423667205  0.8339562981833549  0.5002046481082122
  0.1669422852548695  0.8334711196274328  0.8338364900903374
  0.4165153026715213  0.0830305673430466  0.1654534448939001
  0.4160437018166382  0.0820873656332801  0.5002046481082122
  0.4165288803725672  0.0830577227451312  0.8338364900903374
  0.4151717219639536  0.3324206417020091  0.1658082754744910
  0.4070901556409578  0.3271064615357296  0.5021000373751423
  0.4175926251927603  0.3338347647205369  0.8334411204407688
  0.4151717219639536  0.5827510492619387  0.1658082754744910
  0.4070901556409578  0.5799836631052222  0.5021000373751423
  0.4175926251927603  0.5837578294722174  0.8334411204407688
  0.4165153026715213  0.8334846973284786  0.1654534448939001
  0.4160437018166382  0.8339562981833549  0.5002046481082122
  0.4165288803725672  0.8334711196274328  0.8338364900903374
  0.6668213107874268  0.0834106478937110  0.1654629062588673
  0.6665480949571031  0.0832740399785562  0.4997352872855916
  0.6669626046493082  0.0834812948246518  0.8337203277626717
  0.6672489507380613  0.3324206417020091  0.1658082754744910
  0.6700163368947778  0.3271064615357296  0.5021000373751423
  0.6662421705277826  0.3338347647205369  0.8334411204407688
  0.6666666870000029  0.5833333129999971  0.1668762555683761
  0.6666666870000029  0.5833333129999971  0.8349646479279448
  0.6672489507380613  0.8348282780360464  0.1658082754744910
  0.6700163368947778  0.8429098443590423  0.5021000373751423
  0.6662421705277826  0.8324073748072395  0.8334411204407688
  0.9169684219573980  0.0839368059147996  0.1656254995481270
  0.9174653468611011  0.0849306557222062  0.4995540033940088
  0.9168378891017716  0.0836757402035402  0.8337156096093770
  0.9169684219573980  0.3330316080425976  0.1656254995481270
  0.9174653468611011  0.3325346831389014  0.4995540033940088
  0.9168378891017716  0.3331621408982308  0.8337156096093770
  0.9175793882979933  0.5827510492619387  0.1658082754744910
  0.9228935684642728  0.5799836631052222  0.5021000373751423
  0.9161652652794654  0.5837578294722174  0.8334411204407688
  0.9175793882979933  0.8348282780360464  0.1658082754744910
  0.9228935684642728  0.8429098443590423  0.5021000373751423
  0.9161652652794654  0.8324073748072395  0.8334411204407688
  0.0833170140826101  0.1666829939173906  0.9997405282039912
  0.0832877180649537  0.1667122899350469  0.3321749846135045
  0.0832660609840564  0.1667339470159442  0.6668079572476689
  0.0833170140826101  0.4166340431652248  0.9997405282039912
  0.0832877180649537  0.4165754511299053  0.3321749846135045
  0.0832660609840564  0.4165321369681034  0.6668079572476689
  0.0833198886626653  0.6666542620193510  0.9996493158336550
  0.0850555253846621  0.6674378649501471  0.3318011347880568
  0.0841710218941641  0.6672233787002518  0.6678633869327992
  0.0833198886626653  0.9166656646433178  0.9996493158336550
  0.0850555253846621  0.9176176984345114  0.3318011347880568
  0.0841710218941641  0.9169476811939151  0.6678633869327992
  0.3333343653566849  0.1666801193373353  0.9996493158336550
  0.3323823315654840  0.1649444826153385  0.3318011347880568
  0.3330523488060872  0.1658289861058365  0.6678633869327992
  0.3333427646877484  0.4166713978438772  0.9996565983509268
  0.3316079092684243  0.4158039701342117  0.3321444847450601
  0.3321349149743067  0.4160674729871530  0.6685554986564041
  0.3333343653566849  0.6666542620193510  0.9996493158336550
  0.3323823315654840  0.6674378649501471  0.3318011347880568
  0.3330523488060872  0.6672233787002518  0.6678633869327992
  0.3333333429999996  0.9166666870000029  0.9996819142122211
  0.3333333429999996  0.9166666870000029  0.3321180544767905
  0.3333333429999996  0.9166666870000029  0.6670042881167308
  0.5833457379806490  0.1666801193373353  0.9996493158336550
  0.5825621350498529  0.1649444826153385  0.3318011347880568
  0.5827766212997482  0.1658289861058365  0.6678633869327992
  0.5832601496820488  0.4165203603641067  0.0013822692479668
  0.5816346087171105  0.4132692784342292  0.3269192109675350
  0.5846210552605724  0.4192421715211536  0.6645815982445730
  0.5832601496820488  0.6667398503179512  0.0013822692479668
  0.5816346087171105  0.6683653912828895  0.3269192109675350
  0.5846210552605724  0.6653789447394276  0.6645815982445730
  0.5833457379806490  0.9166656646433178  0.9996493158336550
  0.5825621350498529  0.9176176984345114  0.3318011347880568
  0.5827766212997482  0.9169476811939151  0.6678633869327992
  0.8333659568347748  0.1666829939173906  0.9997405282039912
  0.8334245488700949  0.1667122899350469  0.3321749846135045
  0.8334678630318966  0.1667339470159442  0.6668079572476689
  0.8333286021561228  0.4166713978438772  0.9996565983509268
  0.8341960298657883  0.4158039701342117  0.3321444847450601
  0.8339325270128475  0.4160674729871530  0.6685554986564041
  0.8334796396358932  0.6667398503179512  0.0013822692479668
  0.8367307215657704  0.6683653912828895  0.3269192109675350
  0.8307578284788464  0.6653789447394276  0.6645815982445730
  0.8333286021561228  0.9166572653122541  0.9996565983509268
  0.8341960298657883  0.9183921207315781  0.3321444847450601
  0.8339325270128475  0.9178651150256956  0.6685554986564041
  0.1665305241676077  0.0834694838323930  0.2931203147043133
  0.1667946800204089  0.0832053279795918  0.6264419069591356
  0.1666736199313361  0.0833263880686645  0.9604438628942686
  0.1664875876023279  0.3332438008011647  0.2933033038458082
  0.1672028295563444  0.3336014217781727  0.6262158360759037
  0.1668846947290601  0.3334423543645271  0.9604560499008638
  0.1665305241676077  0.5830610173352163  0.2931203147043133
  0.1667946800204089  0.5835893290408117  0.6264419069591356
  0.1666736199313361  0.5833472088626804  0.9604438628942686
  0.1666715073149040  0.8333357306574499  0.2930793601050782
  0.1662760586118145  0.8331380063059055  0.6267520651173188
  0.1665572786170721  0.8332786163085339  0.9604894933001890
  0.4166642693425498  0.0833285006850967  0.2930793601050782
  0.4168619936940947  0.0837239493881862  0.6267520651173188
  0.4167213836914658  0.0834427293829286  0.9604894933001890
  0.4163159111510268  0.3331867573036286  0.2946099093105886
  0.4180774070192716  0.3348223257606632  0.6270080434248465
  0.4176751195193349  0.3339458860135541  0.9603339855331293
  0.4163159111510268  0.5831291228473919  0.2946099093105886
  0.4180774070192716  0.5832550502586021  0.6270080434248465
  0.4176751195193349  0.5837292025057820  0.9603339855331293
  0.4166642693425498  0.8333357306574499  0.2930793601050782
  0.4168619936940947  0.8331380063059055  0.6267520651173188
  0.4167213836914658  0.8332786163085339  0.9604894933001890
  0.6669389826647837  0.0834694838323930  0.2931203147043133
  0.6664106709591883  0.0832053279795918  0.6264419069591356
  0.6666527911373196  0.0833263880686645  0.9604438628942686
  0.6668708771526081  0.3331867573036286  0.2946099093105886
  0.6667449497413979  0.3348223257606632  0.6270080434248465
  0.6662707974942180  0.3339458860135541  0.9603339855331293
  0.6666666870000029  0.5833333129999971  0.2991679475221695
  0.6666666870000029  0.5833333129999971  0.9612274386612549
  0.6668708771526081  0.8336840888489732  0.2946099093105886
  0.6667449497413979  0.8319225929807285  0.6270080434248465
  0.6662707974942180  0.8323248804806653  0.9603339855331293
  0.9167562291988381  0.0835124203976727  0.2933033038458082
  0.9163986082218297  0.0827971784436562  0.6262158360759037
  0.9165576756354755  0.0831153132709405  0.9604560499008638
  0.9167562291988381  0.3332438008011647  0.2933033038458082
  0.9163986082218297  0.3336014217781727  0.6262158360759037
  0.9165576756354755  0.3334423543645271  0.9604560499008638
  0.9168132726963740  0.5831291228473919  0.2946099093105886
  0.9151777042393394  0.5832550502586021  0.6270080434248465
  0.9160541439864487  0.5837292025057820  0.9603339855331293
  0.9168132726963740  0.8336840888489732  0.2946099093105886
  0.9151777042393394  0.8319225929807285  0.6270080434248465
  0.9160541439864487  0.8323248804806653  0.9603339855331293
  0.0833506686130650  0.1666493393869356  0.1269031660547526
  0.0836349320689704  0.1663650759310303  0.4597066796408673
  0.0833277993467466  0.1666722086532541  0.7933134593971959
  0.0833506686130650  0.4167013522261279  0.1269031660547526
  0.0836349320689704  0.4172698791379384  0.4597066796408673
  0.0833277993467466  0.4166556136934909  0.7933134593971959
  0.0832142509983974  0.6666206620545065  0.1270091387557386
  0.0836613455850024  0.6674316221598786  0.4594611750731926
  0.0828422322298080  0.6665304364506783  0.7939118862112154
  0.0832142509983974  0.9165936269438938  0.1270091387557386
  0.0836613455850024  0.9162297614251271  0.4594611750731926
  0.0828422322298080  0.9163118337791326  0.7939118862112154
  0.3334064030561087  0.1667857570016033  0.1270091387557386
  0.3337702685748754  0.1663386624149983  0.4594611750731926
  0.3336881962208698  0.1671577757701928  0.7939118862112154
  0.3333380059932385  0.4166690184966224  0.1272492665928946
  0.3342804234328298  0.4171402272164143  0.4599484725563843
  0.3337072597297251  0.4168536453648691  0.7942486231142313
  0.3334064030561087  0.6666206620545065  0.1270091387557386
  0.3337702685748754  0.6674316221598786  0.4594611750731926
  0.3336881962208698  0.6665304364506783  0.7939118862112154
  0.3333333429999996  0.9166666870000029  0.1268060655423432
  0.3333333429999996  0.9166666870000029  0.4595298214859557
  0.3333333429999996  0.9166666870000029  0.7934882364477229
  0.5833793379454935  0.1667857570016033  0.1270091387557386
  0.5825683778401214  0.1663386624149983  0.4594611750731926
  0.5834695635493217  0.1671577757701928  0.7939118862112154
  0.5834941531673158  0.4169883673346405  0.1295532152713095
  0.5857805513619244  0.4215611637238645  0.4651775255975838
  0.5844362409668843  0.4188725429337699  0.7900756921834154
  0.5834941531673158  0.6665058468326842  0.1295532152713095
  0.5857805513619244  0.6642194486380756  0.4651775255975838
  0.5844362409668843  0.6655637590331157  0.7900756921834154
  0.5833793379454935  0.9165936269438938  0.1270091387557386
  0.5825683778401214  0.9162297614251271  0.4594611750731926
  0.5834695635493217  0.9163118337791326  0.7939118862112154
  0.8332986477738722  0.1666493393869356  0.1269031660547526
  0.8327301208620616  0.1663650759310303  0.4597066796408673
  0.8333443863065092  0.1666722086532541  0.7933134593971959
  0.8333309815033777  0.4166690184966224  0.1272492665928946
  0.8328597727835857  0.4171402272164143  0.4599484725563843
  0.8331463546351306  0.4168536453648691  0.7942486231142313
  0.8330116326653597  0.6665058468326842  0.1295532152713095
  0.8284388362761353  0.6642194486380756  0.4651775255975838
  0.8311274570662303  0.6655637590331157  0.7900756921834154
  0.8333309815033777  0.9166620240067639  0.1272492665928946
  0.8328597727835857  0.9157196065671729  0.4599484725563843
  0.8331463546351306  0.9162927702702774  0.7942486231142313
  0.6666666870000029  0.5833333129999971  0.4972496134959585
 
  0.00000000E+00  0.00000000E+00  0.00000000E+00
  0.00000000E+00  0.00000000E+00  0.00000000E+00
  0.00000000E+00  0.00000000E+00  0.00000000E+00
  0.00000000E+00  0.00000000E+00  0.00000000E+00
  0.00000000E+00  0.00000000E+00  0.00000000E+00
  0.00000000E+00  0.00000000E+00  0.00000000E+00
  0.00000000E+00  0.00000000E+00  0.00000000E+00
  0.00000000E+00  0.00000000E+00  0.00000000E+00
  0.00000000E+00  0.00000000E+00  0.00000000E+00
  0.00000000E+00  0.00000000E+00  0.00000000E+00
  0.00000000E+00  0.00000000E+00  0.00000000E+00
  0.00000000E+00  0.00000000E+00  0.00000000E+00
  0.00000000E+00  0.00000000E+00  0.00000000E+00
  0.00000000E+00  0.00000000E+00  0.00000000E+00
  0.00000000E+00  0.00000000E+00  0.00000000E+00
  0.00000000E+00  0.00000000E+00  0.00000000E+00
  0.00000000E+00  0.00000000E+00  0.00000000E+00
  0.00000000E+00  0.00000000E+00  0.00000000E+00
  0.00000000E+00  0.00000000E+00  0.00000000E+00
  0.00000000E+00  0.00000000E+00  0.00000000E+00
  0.00000000E+00  0.00000000E+00  0.00000000E+00
  0.00000000E+00  0.00000000E+00  0.00000000E+00
  0.00000000E+00  0.00000000E+00  0.00000000E+00
  0.00000000E+00  0.00000000E+00  0.00000000E+00
  0.00000000E+00  0.00000000E+00  0.00000000E+00
  0.00000000E+00  0.00000000E+00  0.00000000E+00
  0.00000000E+00  0.00000000E+00  0.00000000E+00
  0.00000000E+00  0.00000000E+00  0.00000000E+00
  0.00000000E+00  0.00000000E+00  0.00000000E+00
  0.00000000E+00  0.00000000E+00  0.00000000E+00
  0.00000000E+00  0.00000000E+00  0.00000000E+00
  0.00000000E+00  0.00000000E+00  0.00000000E+00
  0.00000000E+00  0.00000000E+00  0.00000000E+00
  0.00000000E+00  0.00000000E+00  0.00000000E+00
  0.00000000E+00  0.00000000E+00  0.00000000E+00
  0.00000000E+00  0.00000000E+00  0.00000000E+00
  0.00000000E+00  0.00000000E+00  0.00000000E+00
  0.00000000E+00  0.00000000E+00  0.00000000E+00
  0.00000000E+00  0.00000000E+00  0.00000000E+00
  0.00000000E+00  0.00000000E+00  0.00000000E+00
  0.00000000E+00  0.00000000E+00  0.00000000E+00
  0.00000000E+00  0.00000000E+00  0.00000000E+00
  0.00000000E+00  0.00000000E+00  0.00000000E+00
  0.00000000E+00  0.00000000E+00  0.00000000E+00
  0.00000000E+00  0.00000000E+00  0.00000000E+00
  0.00000000E+00  0.00000000E+00  0.00000000E+00
  0.00000000E+00  0.00000000E+00  0.00000000E+00
  0.00000000E+00  0.00000000E+00  0.00000000E+00
  0.00000000E+00  0.00000000E+00  0.00000000E+00
  0.00000000E+00  0.00000000E+00  0.00000000E+00
  0.00000000E+00  0.00000000E+00  0.00000000E+00
  0.00000000E+00  0.00000000E+00  0.00000000E+00
  0.00000000E+00  0.00000000E+00  0.00000000E+00
  0.00000000E+00  0.00000000E+00  0.00000000E+00
  0.00000000E+00  0.00000000E+00  0.00000000E+00
  0.00000000E+00  0.00000000E+00  0.00000000E+00
  0.00000000E+00  0.00000000E+00  0.00000000E+00
  0.00000000E+00  0.00000000E+00  0.00000000E+00
  0.00000000E+00  0.00000000E+00  0.00000000E+00
  0.00000000E+00  0.00000000E+00  0.00000000E+00
  0.00000000E+00  0.00000000E+00  0.00000000E+00
  0.00000000E+00  0.00000000E+00  0.00000000E+00
  0.00000000E+00  0.00000000E+00  0.00000000E+00
  0.00000000E+00  0.00000000E+00  0.00000000E+00
  0.00000000E+00  0.00000000E+00  0.00000000E+00
  0.00000000E+00  0.00000000E+00  0.00000000E+00
  0.00000000E+00  0.00000000E+00  0.00000000E+00
  0.00000000E+00  0.00000000E+00  0.00000000E+00
  0.00000000E+00  0.00000000E+00  0.00000000E+00
  0.00000000E+00  0.00000000E+00  0.00000000E+00
  0.00000000E+00  0.00000000E+00  0.00000000E+00
  0.00000000E+00  0.00000000E+00  0.00000000E+00
  0.00000000E+00  0.00000000E+00  0.00000000E+00
  0.00000000E+00  0.00000000E+00  0.00000000E+00
  0.00000000E+00  0.00000000E+00  0.00000000E+00
  0.00000000E+00  0.00000000E+00  0.00000000E+00
  0.00000000E+00  0.00000000E+00  0.00000000E+00
  0.00000000E+00  0.00000000E+00  0.00000000E+00
  0.00000000E+00  0.00000000E+00  0.00000000E+00
  0.00000000E+00  0.00000000E+00  0.00000000E+00
  0.00000000E+00  0.00000000E+00  0.00000000E+00
  0.00000000E+00  0.00000000E+00  0.00000000E+00
  0.00000000E+00  0.00000000E+00  0.00000000E+00
  0.00000000E+00  0.00000000E+00  0.00000000E+00
  0.00000000E+00  0.00000000E+00  0.00000000E+00
  0.00000000E+00  0.00000000E+00  0.00000000E+00
  0.00000000E+00  0.00000000E+00  0.00000000E+00
  0.00000000E+00  0.00000000E+00  0.00000000E+00
  0.00000000E+00  0.00000000E+00  0.00000000E+00
  0.00000000E+00  0.00000000E+00  0.00000000E+00
  0.00000000E+00  0.00000000E+00  0.00000000E+00
  0.00000000E+00  0.00000000E+00  0.00000000E+00
  0.00000000E+00  0.00000000E+00  0.00000000E+00
  0.00000000E+00  0.00000000E+00  0.00000000E+00
  0.00000000E+00  0.00000000E+00  0.00000000E+00
  0.00000000E+00  0.00000000E+00  0.00000000E+00
  0.00000000E+00  0.00000000E+00  0.00000000E+00
  0.00000000E+00  0.00000000E+00  0.00000000E+00
  0.00000000E+00  0.00000000E+00  0.00000000E+00
  0.00000000E+00  0.00000000E+00  0.00000000E+00
  0.00000000E+00  0.00000000E+00  0.00000000E+00
  0.00000000E+00  0.00000000E+00  0.00000000E+00
  0.00000000E+00  0.00000000E+00  0.00000000E+00
  0.00000000E+00  0.00000000E+00  0.00000000E+00
  0.00000000E+00  0.00000000E+00  0.00000000E+00
  0.00000000E+00  0.00000000E+00  0.00000000E+00
  0.00000000E+00  0.00000000E+00  0.00000000E+00
  0.00000000E+00  0.00000000E+00  0.00000000E+00
  0.00000000E+00  0.00000000E+00  0.00000000E+00
  0.00000000E+00  0.00000000E+00  0.00000000E+00
  0.00000000E+00  0.00000000E+00  0.00000000E+00
  0.00000000E+00  0.00000000E+00  0.00000000E+00
  0.00000000E+00  0.00000000E+00  0.00000000E+00
  0.00000000E+00  0.00000000E+00  0.00000000E+00
  0.00000000E+00  0.00000000E+00  0.00000000E+00
  0.00000000E+00  0.00000000E+00  0.00000000E+00
  0.00000000E+00  0.00000000E+00  0.00000000E+00
  0.00000000E+00  0.00000000E+00  0.00000000E+00
  0.00000000E+00  0.00000000E+00  0.00000000E+00
  0.00000000E+00  0.00000000E+00  0.00000000E+00
  0.00000000E+00  0.00000000E+00  0.00000000E+00
  0.00000000E+00  0.00000000E+00  0.00000000E+00
  0.00000000E+00  0.00000000E+00  0.00000000E+00
  0.00000000E+00  0.00000000E+00  0.00000000E+00
  0.00000000E+00  0.00000000E+00  0.00000000E+00
  0.00000000E+00  0.00000000E+00  0.00000000E+00
  0.00000000E+00  0.00000000E+00  0.00000000E+00
  0.00000000E+00  0.00000000E+00  0.00000000E+00
  0.00000000E+00  0.00000000E+00  0.00000000E+00
  0.00000000E+00  0.00000000E+00  0.00000000E+00
  0.00000000E+00  0.00000000E+00  0.00000000E+00
  0.00000000E+00  0.00000000E+00  0.00000000E+00
  0.00000000E+00  0.00000000E+00  0.00000000E+00
  0.00000000E+00  0.00000000E+00  0.00000000E+00
  0.00000000E+00  0.00000000E+00  0.00000000E+00
  0.00000000E+00  0.00000000E+00  0.00000000E+00
  0.00000000E+00  0.00000000E+00  0.00000000E+00
  0.00000000E+00  0.00000000E+00  0.00000000E+00
  0.00000000E+00  0.00000000E+00  0.00000000E+00
  0.00000000E+00  0.00000000E+00  0.00000000E+00
  0.00000000E+00  0.00000000E+00  0.00000000E+00
  0.00000000E+00  0.00000000E+00  0.00000000E+00
  0.00000000E+00  0.00000000E+00  0.00000000E+00
  0.00000000E+00  0.00000000E+00  0.00000000E+00
  0.00000000E+00  0.00000000E+00  0.00000000E+00
  0.00000000E+00  0.00000000E+00  0.00000000E+00
  0.00000000E+00  0.00000000E+00  0.00000000E+00
  0.00000000E+00  0.00000000E+00  0.00000000E+00
  0.00000000E+00  0.00000000E+00  0.00000000E+00
  0.00000000E+00  0.00000000E+00  0.00000000E+00
  0.00000000E+00  0.00000000E+00  0.00000000E+00
  0.00000000E+00  0.00000000E+00  0.00000000E+00
  0.00000000E+00  0.00000000E+00  0.00000000E+00
  0.00000000E+00  0.00000000E+00  0.00000000E+00
  0.00000000E+00  0.00000000E+00  0.00000000E+00
  0.00000000E+00  0.00000000E+00  0.00000000E+00
  0.00000000E+00  0.00000000E+00  0.00000000E+00
  0.00000000E+00  0.00000000E+00  0.00000000E+00
  0.00000000E+00  0.00000000E+00  0.00000000E+00
  0.00000000E+00  0.00000000E+00  0.00000000E+00
  0.00000000E+00  0.00000000E+00  0.00000000E+00
  0.00000000E+00  0.00000000E+00  0.00000000E+00
  0.00000000E+00  0.00000000E+00  0.00000000E+00
  0.00000000E+00  0.00000000E+00  0.00000000E+00
  0.00000000E+00  0.00000000E+00  0.00000000E+00
  0.00000000E+00  0.00000000E+00  0.00000000E+00
  0.00000000E+00  0.00000000E+00  0.00000000E+00
  0.00000000E+00  0.00000000E+00  0.00000000E+00
  0.00000000E+00  0.00000000E+00  0.00000000E+00
  0.00000000E+00  0.00000000E+00  0.00000000E+00
  0.00000000E+00  0.00000000E+00  0.00000000E+00
  0.00000000E+00  0.00000000E+00  0.00000000E+00
  0.00000000E+00  0.00000000E+00  0.00000000E+00
  0.00000000E+00  0.00000000E+00  0.00000000E+00
  0.00000000E+00  0.00000000E+00  0.00000000E+00
  0.00000000E+00  0.00000000E+00  0.00000000E+00
  0.00000000E+00  0.00000000E+00  0.00000000E+00
  0.00000000E+00  0.00000000E+00  0.00000000E+00
  0.00000000E+00  0.00000000E+00  0.00000000E+00
  0.00000000E+00  0.00000000E+00  0.00000000E+00
  0.00000000E+00  0.00000000E+00  0.00000000E+00
  0.00000000E+00  0.00000000E+00  0.00000000E+00
  0.00000000E+00  0.00000000E+00  0.00000000E+00
  0.00000000E+00  0.00000000E+00  0.00000000E+00
  0.00000000E+00  0.00000000E+00  0.00000000E+00
  0.00000000E+00  0.00000000E+00  0.00000000E+00
  0.00000000E+00  0.00000000E+00  0.00000000E+00
  0.00000000E+00  0.00000000E+00  0.00000000E+00
  0.00000000E+00  0.00000000E+00  0.00000000E+00
  0.00000000E+00  0.00000000E+00  0.00000000E+00
  0.00000000E+00  0.00000000E+00  0.00000000E+00
