  Zn2 O2                                
   1.00000000000000     
    12.9943542480000005    0.0000000000000000    0.0000000000000000
    -6.4971766471999999   11.2534400587000007    0.0000000000000000
     0.0000000000000000    0.0000000000000000   15.6120386123999992
   Zn   O    Mo
    95    95     1
Direct
  0.1665884010012125  0.0834116069987882  0.1654456943529122
  0.1667458213259357  0.0832541866740650  0.4997629345600648
  0.1665165443828039  0.0834834636171967  0.8337138914779820
  0.1660691202407794  0.3330345671203867  0.1655871121398396
  0.1650092340245174  0.3325046240122664  0.4995717596814817
  0.1663720003445875  0.3331860071722907  0.8336943578044601
  0.1665884010012125  0.5831767710024259  0.1654456943529122
  0.1667458213259357  0.5834916116518722  0.4997629345600648
  0.1665165443828039  0.5830330577656018  0.8337138914779820
  0.1669646594213478  0.8334823067106790  0.1654226970128988
  0.1679103521731895  0.8339551530865894  0.5002214757108587
  0.1669216594080155  0.8334608067040059  0.8338564764818223
  0.4165176932893209  0.0830353485786529  0.1654226970128988
  0.4160448469134036  0.0820896558268111  0.5002214757108587
  0.4165391932959942  0.0830783485919852  0.8338564764818223
  0.4152048658657738  0.3324341897461991  0.1658283666412606
  0.4067769446519454  0.3270231306399012  0.5022938683695812
  0.4177818830220351  0.3339337199895605  0.8332729079289595
  0.4152048658657738  0.5827706451195684  0.1658283666412606
  0.4067769446519454  0.5797537830120381  0.5022938683695812
  0.4177818830220351  0.5838481320324683  0.8332729079289595
  0.4165176932893209  0.8334823067106790  0.1654226970128988
  0.4160448469134036  0.8339551530865894  0.5002214757108587
  0.4165391932959942  0.8334608067040059  0.8338564764818223
  0.6668232289975741  0.0834116069987882  0.1654456943529122
  0.6665083883481278  0.0832541866740650  0.4997629345600648
  0.6669669422343982  0.0834834636171967  0.8337138914779820
  0.6672293548804316  0.3324341897461991  0.1658283666412606
  0.6702462169879619  0.3270231306399012  0.5022938683695812
  0.6661518679675317  0.3339337199895605  0.8332729079289595
  0.6666666870000029  0.5833333129999971  0.1667702824060397
  0.6666666870000029  0.5833333129999971  0.8349107154376316
  0.6672293548804316  0.8347951341342263  0.1658283666412606
  0.6702462169879619  0.8432230553480545  0.5022938683695812
  0.6661518679675317  0.8322181169779650  0.8332729079289595
  0.9169654628796088  0.0839308877592213  0.1655871121398396
  0.9174954059877360  0.0849907739754832  0.4995717596814817
  0.9168140228277117  0.0836280076554132  0.8336943578044601
  0.9169654628796088  0.3330345671203867  0.1655871121398396
  0.9174954059877360  0.3325046240122664  0.4995717596814817
  0.9168140228277117  0.3331860071722907  0.8336943578044601
  0.9175658402538035  0.5827706451195684  0.1658283666412606
  0.9229768993601012  0.5797537830120381  0.5022938683695812
  0.9160663100104419  0.5838481320324683  0.8332729079289595
  0.9175658402538035  0.8347951341342263  0.1658283666412606
  0.9229768993601012  0.8432230553480545  0.5022938683695812
  0.9160663100104419  0.8322181169779650  0.8332729079289595
  0.0833172995393582  0.1666827084606424  0.9997200302419315
  0.0832901800095135  0.1667098279904871  0.3321508816377580
  0.0832910552297332  0.1667089527702675  0.6668009028761939
  0.0833172995393582  0.4166346140787284  0.9997200302419315
  0.0832901800095135  0.4165803750190318  0.3321508816377580
  0.0832910552297332  0.4165821254594641  0.6668009028761939
  0.0832637542737889  0.6666208577993702  0.9996111219446749
  0.0850289823311009  0.6674334679811923  0.3317881902487166
  0.0841012232428680  0.6672468001291206  0.6679080665340078
  0.0832637542737889  0.9166429344744220  0.9996111219446749
  0.0850289823311009  0.9175955523499045  0.3317881902487166
  0.0841012232428680  0.9168544611137505  0.6679080665340078
  0.3333570955255805  0.1667362537262117  0.9996111219446749
  0.3324044776500907  0.1649710256688997  0.3317881902487166
  0.3331455688862519  0.1658987847571327  0.6679080665340078
  0.3334122232040002  0.4167061271020032  0.9995770371312381
  0.3316099929738891  0.4158050119869440  0.3321540931392313
  0.3321573339935312  0.4160786824967687  0.6686083734179152
  0.3333570955255805  0.6666208577993702  0.9996111219446749
  0.3324044776500907  0.6674334679811923  0.3317881902487166
  0.3331455688862519  0.6672468001291206  0.6679080665340078
  0.3333333429999996  0.9166666870000029  0.9996866996660758
  0.3333333429999996  0.9166666870000029  0.3320717503917623
  0.3333333429999996  0.9166666870000029  0.6670090234369352
  0.5833791422006298  0.1667362537262117  0.9996111219446749
  0.5825665320188077  0.1649710256688997  0.3317881902487166
  0.5827531998708794  0.1658987847571327  0.6679080665340078
  0.5832661090659198  0.4165322791318411  0.0013286635915518
  0.5817906219496781  0.4135813048993573  0.3269629561791874
  0.5852330943083022  0.4204662496166130  0.6639904830078864
  0.5832661090659198  0.6667338909340802  0.0013286635915518
  0.5817906219496781  0.6682093780503219  0.3269629561791874
  0.5852330943083022  0.6647669056916978  0.6639904830078864
  0.5833791422006298  0.9166429344744220  0.9996111219446749
  0.5825665320188077  0.9175955523499045  0.3317881902487166
  0.5827531998708794  0.9168544611137505  0.6679080665340078
  0.8333653859212717  0.1666827084606424  0.9997200302419315
  0.8334196249809683  0.1667098279904871  0.3321508816377580
  0.8334178745405358  0.1667089527702675  0.6668009028761939
  0.8332938728979968  0.4167061271020032  0.9995770371312381
  0.8341949880130559  0.4158050119869440  0.3321540931392313
  0.8339213175032313  0.4160786824967687  0.6686083734179152
  0.8334677208681588  0.6667338909340802  0.0013286635915518
  0.8364186951006426  0.6682093780503219  0.3269629561791874
  0.8295337503833871  0.6647669056916978  0.6639904830078864
  0.8332938728979968  0.9165878067960023  0.9995770371312381
  0.8341949880130559  0.9183900370261134  0.3321540931392313
  0.8339213175032313  0.9178426960064712  0.6686083734179152
  0.1665373634043316  0.0834626445956690  0.2931071861565743
  0.1668267818605917  0.0831732261394090  0.6264397813614195
  0.1666726771958787  0.0833273308041219  0.9604564717409788
  0.1665186110559997  0.3332593125280040  0.2932748678844606
  0.1672101866376717  0.3336051003188329  0.6261875973219385
  0.1668829829073711  0.3334414984536826  0.9604471146825100
  0.1665373634043316  0.5830746958086572  0.2931071861565743
  0.1668267818605917  0.5836535327211773  0.6264397813614195
  0.1666726771958787  0.5833453233917656  0.9604564717409788
  0.1666774999021368  0.8333387269510665  0.2930427130307881
  0.1662854079502639  0.8331426809751301  0.6267138107072630
  0.1665659283324857  0.8332829411662446  0.9605232914538584
  0.4166612730489335  0.0833225080978639  0.2930427130307881
  0.4168573190248699  0.0837146000497367  0.6267138107072630
  0.4167170588337555  0.0834340796675149  0.9605232914538584
  0.4164581659371393  0.3332840238132208  0.2947015156091634
  0.4180664348570345  0.3347953795487207  0.6270891315652593
  0.4177205042558599  0.3339645137088001  0.9602345872493292
  0.4164581659371393  0.5831741111239124  0.2947015156091634
  0.4180664348570345  0.5832710243083076  0.6270891315652593
  0.4177205042558599  0.5837559595470607  0.9602345872493292
  0.4166612730489335  0.8333387269510665  0.2930427130307881
  0.4168573190248699  0.8331426809751301  0.6267138107072630
  0.4167170588337555  0.8332829411662446  0.9605232914538584
  0.6669253041913428  0.0834626445956690  0.2931071861565743
  0.6663464672788227  0.0831732261394090  0.6264397813614195
  0.6666546766082344  0.0833273308041219  0.9604564717409788
  0.6668258888760876  0.3332840238132208  0.2947015156091634
  0.6667289756916924  0.3347953795487207  0.6270891315652593
  0.6662440404529393  0.3339645137088001  0.9602345872493292
  0.6666666870000029  0.5833333129999971  0.2990126644879336
  0.6666666870000029  0.5833333129999971  0.9611890811588331
  0.6668258888760876  0.8335418340628606  0.2947015156091634
  0.6667289756916924  0.8319335651429655  0.6270891315652593
  0.6662440404529393  0.8322794957441403  0.9602345872493292
  0.9167407174719985  0.0834813969440009  0.2932748678844606
  0.9163949296811695  0.0827898213623290  0.6261875973219385
  0.9165585315463199  0.0831170250926296  0.9604471146825100
  0.9167407174719985  0.3332593125280040  0.2932748678844606
  0.9163949296811695  0.3336051003188329  0.6261875973219385
  0.9165585315463199  0.3334414984536826  0.9604471146825100
  0.9167160061867816  0.5831741111239124  0.2947015156091634
  0.9152046504512816  0.5832710243083076  0.6270891315652593
  0.9160355162912025  0.5837559595470607  0.9602345872493292
  0.9167160061867816  0.8335418340628606  0.2947015156091634
  0.9152046504512816  0.8319335651429655  0.6270891315652593
  0.9160355162912025  0.8322794957441403  0.9602345872493292
  0.0833468071064177  0.1666532008935829  0.1268880543472862
  0.0836448113916689  0.1663551966083317  0.4596681914347114
  0.0833212876454620  0.1666787203545387  0.7932904496865216
  0.0833468071064177  0.4166936292128332  0.1268880543472862
  0.0836448113916689  0.4172896377833427  0.4596681914347114
  0.0833212876454620  0.4166425902909216  0.7932904496865216
  0.0831723816511856  0.6665887545044549  0.1270089734533525
  0.0835833046797026  0.6674107127289082  0.4594287108697520
  0.0828412448651453  0.6665345352598873  0.7939284617304646
  0.0831723816511856  0.9165836651467338  0.1270089734533525
  0.0835833046797026  0.9161726299507976  0.4594287108697520
  0.0828412448651453  0.9163067476052611  0.7939284617304646
  0.3334163648532686  0.1668276263488151  0.1270089734533525
  0.3338274000492049  0.1664167033202980  0.4594287108697520
  0.3336932823947414  0.1671587631348554  0.7939284617304646
  0.3333815616054446  0.4166907963027254  0.1272334438214450
  0.3342482254720260  0.4171241282360160  0.4599299495320421
  0.3337338187805911  0.4168669248903057  0.7942481567698083
  0.3334163648532686  0.6665887545044549  0.1270089734533525
  0.3338274000492049  0.6674107127289082  0.4594287108697520
  0.3336932823947414  0.6665345352598873  0.7939284617304646
  0.3333333429999996  0.9166666870000029  0.1268012725698859
  0.3333333429999996  0.9166666870000029  0.4594669507837261
  0.3333333429999996  0.9166666870000029  0.7935006309750102
  0.5834112454955451  0.1668276263488151  0.1270089734533525
  0.5825892872710918  0.1664167033202980  0.4594287108697520
  0.5834654647401127  0.1671587631348554  0.7939284617304646
  0.5834936379301990  0.4169873368604067  0.1295216503759024
  0.5862558658753729  0.4225117927507545  0.4658762246762778
  0.5845128766014858  0.4190258142029660  0.7896791245327089
  0.5834936379301990  0.6665063620698010  0.1295216503759024
  0.5862558658753729  0.6637441341246271  0.4658762246762778
  0.5845128766014858  0.6654871233985142  0.7896791245327089
  0.5834112454955451  0.9165836651467338  0.1270089734533525
  0.5825892872710918  0.9161726299507976  0.4594287108697520
  0.5834654647401127  0.9163067476052611  0.7939284617304646
  0.8333063707871667  0.1666532008935829  0.1268880543472862
  0.8327103622166645  0.1663551966083317  0.4596681914347114
  0.8333574097090785  0.1666787203545387  0.7932904496865216
  0.8333092036972746  0.4166907963027254  0.1272334438214450
  0.8328758717639839  0.4171241282360160  0.4599299495320421
  0.8331330751096944  0.4168669248903057  0.7942481567698083
  0.8330126631395933  0.6665063620698010  0.1295216503759024
  0.8274882072492455  0.6637441341246271  0.4658762246762778
  0.8309741857970340  0.6654871233985142  0.7896791245327089
  0.8333092036972746  0.9166184683945577  0.1272334438214450
  0.8328758717639839  0.9157518045279766  0.4599299495320421
  0.8331330751096944  0.9162662112194113  0.7942481567698083
  0.6666666870000029  0.5833333129999971  0.4990714759337817
 
  0.00000000E+00  0.00000000E+00  0.00000000E+00
  0.00000000E+00  0.00000000E+00  0.00000000E+00
  0.00000000E+00  0.00000000E+00  0.00000000E+00
  0.00000000E+00  0.00000000E+00  0.00000000E+00
  0.00000000E+00  0.00000000E+00  0.00000000E+00
  0.00000000E+00  0.00000000E+00  0.00000000E+00
  0.00000000E+00  0.00000000E+00  0.00000000E+00
  0.00000000E+00  0.00000000E+00  0.00000000E+00
  0.00000000E+00  0.00000000E+00  0.00000000E+00
  0.00000000E+00  0.00000000E+00  0.00000000E+00
  0.00000000E+00  0.00000000E+00  0.00000000E+00
  0.00000000E+00  0.00000000E+00  0.00000000E+00
  0.00000000E+00  0.00000000E+00  0.00000000E+00
  0.00000000E+00  0.00000000E+00  0.00000000E+00
  0.00000000E+00  0.00000000E+00  0.00000000E+00
  0.00000000E+00  0.00000000E+00  0.00000000E+00
  0.00000000E+00  0.00000000E+00  0.00000000E+00
  0.00000000E+00  0.00000000E+00  0.00000000E+00
  0.00000000E+00  0.00000000E+00  0.00000000E+00
  0.00000000E+00  0.00000000E+00  0.00000000E+00
  0.00000000E+00  0.00000000E+00  0.00000000E+00
  0.00000000E+00  0.00000000E+00  0.00000000E+00
  0.00000000E+00  0.00000000E+00  0.00000000E+00
  0.00000000E+00  0.00000000E+00  0.00000000E+00
  0.00000000E+00  0.00000000E+00  0.00000000E+00
  0.00000000E+00  0.00000000E+00  0.00000000E+00
  0.00000000E+00  0.00000000E+00  0.00000000E+00
  0.00000000E+00  0.00000000E+00  0.00000000E+00
  0.00000000E+00  0.00000000E+00  0.00000000E+00
  0.00000000E+00  0.00000000E+00  0.00000000E+00
  0.00000000E+00  0.00000000E+00  0.00000000E+00
  0.00000000E+00  0.00000000E+00  0.00000000E+00
  0.00000000E+00  0.00000000E+00  0.00000000E+00
  0.00000000E+00  0.00000000E+00  0.00000000E+00
  0.00000000E+00  0.00000000E+00  0.00000000E+00
  0.00000000E+00  0.00000000E+00  0.00000000E+00
  0.00000000E+00  0.00000000E+00  0.00000000E+00
  0.00000000E+00  0.00000000E+00  0.00000000E+00
  0.00000000E+00  0.00000000E+00  0.00000000E+00
  0.00000000E+00  0.00000000E+00  0.00000000E+00
  0.00000000E+00  0.00000000E+00  0.00000000E+00
  0.00000000E+00  0.00000000E+00  0.00000000E+00
  0.00000000E+00  0.00000000E+00  0.00000000E+00
  0.00000000E+00  0.00000000E+00  0.00000000E+00
  0.00000000E+00  0.00000000E+00  0.00000000E+00
  0.00000000E+00  0.00000000E+00  0.00000000E+00
  0.00000000E+00  0.00000000E+00  0.00000000E+00
  0.00000000E+00  0.00000000E+00  0.00000000E+00
  0.00000000E+00  0.00000000E+00  0.00000000E+00
  0.00000000E+00  0.00000000E+00  0.00000000E+00
  0.00000000E+00  0.00000000E+00  0.00000000E+00
  0.00000000E+00  0.00000000E+00  0.00000000E+00
  0.00000000E+00  0.00000000E+00  0.00000000E+00
  0.00000000E+00  0.00000000E+00  0.00000000E+00
  0.00000000E+00  0.00000000E+00  0.00000000E+00
  0.00000000E+00  0.00000000E+00  0.00000000E+00
  0.00000000E+00  0.00000000E+00  0.00000000E+00
  0.00000000E+00  0.00000000E+00  0.00000000E+00
  0.00000000E+00  0.00000000E+00  0.00000000E+00
  0.00000000E+00  0.00000000E+00  0.00000000E+00
  0.00000000E+00  0.00000000E+00  0.00000000E+00
  0.00000000E+00  0.00000000E+00  0.00000000E+00
  0.00000000E+00  0.00000000E+00  0.00000000E+00
  0.00000000E+00  0.00000000E+00  0.00000000E+00
  0.00000000E+00  0.00000000E+00  0.00000000E+00
  0.00000000E+00  0.00000000E+00  0.00000000E+00
  0.00000000E+00  0.00000000E+00  0.00000000E+00
  0.00000000E+00  0.00000000E+00  0.00000000E+00
  0.00000000E+00  0.00000000E+00  0.00000000E+00
  0.00000000E+00  0.00000000E+00  0.00000000E+00
  0.00000000E+00  0.00000000E+00  0.00000000E+00
  0.00000000E+00  0.00000000E+00  0.00000000E+00
  0.00000000E+00  0.00000000E+00  0.00000000E+00
  0.00000000E+00  0.00000000E+00  0.00000000E+00
  0.00000000E+00  0.00000000E+00  0.00000000E+00
  0.00000000E+00  0.00000000E+00  0.00000000E+00
  0.00000000E+00  0.00000000E+00  0.00000000E+00
  0.00000000E+00  0.00000000E+00  0.00000000E+00
  0.00000000E+00  0.00000000E+00  0.00000000E+00
  0.00000000E+00  0.00000000E+00  0.00000000E+00
  0.00000000E+00  0.00000000E+00  0.00000000E+00
  0.00000000E+00  0.00000000E+00  0.00000000E+00
  0.00000000E+00  0.00000000E+00  0.00000000E+00
  0.00000000E+00  0.00000000E+00  0.00000000E+00
  0.00000000E+00  0.00000000E+00  0.00000000E+00
  0.00000000E+00  0.00000000E+00  0.00000000E+00
  0.00000000E+00  0.00000000E+00  0.00000000E+00
  0.00000000E+00  0.00000000E+00  0.00000000E+00
  0.00000000E+00  0.00000000E+00  0.00000000E+00
  0.00000000E+00  0.00000000E+00  0.00000000E+00
  0.00000000E+00  0.00000000E+00  0.00000000E+00
  0.00000000E+00  0.00000000E+00  0.00000000E+00
  0.00000000E+00  0.00000000E+00  0.00000000E+00
  0.00000000E+00  0.00000000E+00  0.00000000E+00
  0.00000000E+00  0.00000000E+00  0.00000000E+00
  0.00000000E+00  0.00000000E+00  0.00000000E+00
  0.00000000E+00  0.00000000E+00  0.00000000E+00
  0.00000000E+00  0.00000000E+00  0.00000000E+00
  0.00000000E+00  0.00000000E+00  0.00000000E+00
  0.00000000E+00  0.00000000E+00  0.00000000E+00
  0.00000000E+00  0.00000000E+00  0.00000000E+00
  0.00000000E+00  0.00000000E+00  0.00000000E+00
  0.00000000E+00  0.00000000E+00  0.00000000E+00
  0.00000000E+00  0.00000000E+00  0.00000000E+00
  0.00000000E+00  0.00000000E+00  0.00000000E+00
  0.00000000E+00  0.00000000E+00  0.00000000E+00
  0.00000000E+00  0.00000000E+00  0.00000000E+00
  0.00000000E+00  0.00000000E+00  0.00000000E+00
  0.00000000E+00  0.00000000E+00  0.00000000E+00
  0.00000000E+00  0.00000000E+00  0.00000000E+00
  0.00000000E+00  0.00000000E+00  0.00000000E+00
  0.00000000E+00  0.00000000E+00  0.00000000E+00
  0.00000000E+00  0.00000000E+00  0.00000000E+00
  0.00000000E+00  0.00000000E+00  0.00000000E+00
  0.00000000E+00  0.00000000E+00  0.00000000E+00
  0.00000000E+00  0.00000000E+00  0.00000000E+00
  0.00000000E+00  0.00000000E+00  0.00000000E+00
  0.00000000E+00  0.00000000E+00  0.00000000E+00
  0.00000000E+00  0.00000000E+00  0.00000000E+00
  0.00000000E+00  0.00000000E+00  0.00000000E+00
  0.00000000E+00  0.00000000E+00  0.00000000E+00
  0.00000000E+00  0.00000000E+00  0.00000000E+00
  0.00000000E+00  0.00000000E+00  0.00000000E+00
  0.00000000E+00  0.00000000E+00  0.00000000E+00
  0.00000000E+00  0.00000000E+00  0.00000000E+00
  0.00000000E+00  0.00000000E+00  0.00000000E+00
  0.00000000E+00  0.00000000E+00  0.00000000E+00
  0.00000000E+00  0.00000000E+00  0.00000000E+00
  0.00000000E+00  0.00000000E+00  0.00000000E+00
  0.00000000E+00  0.00000000E+00  0.00000000E+00
  0.00000000E+00  0.00000000E+00  0.00000000E+00
  0.00000000E+00  0.00000000E+00  0.00000000E+00
  0.00000000E+00  0.00000000E+00  0.00000000E+00
  0.00000000E+00  0.00000000E+00  0.00000000E+00
  0.00000000E+00  0.00000000E+00  0.00000000E+00
  0.00000000E+00  0.00000000E+00  0.00000000E+00
  0.00000000E+00  0.00000000E+00  0.00000000E+00
  0.00000000E+00  0.00000000E+00  0.00000000E+00
  0.00000000E+00  0.00000000E+00  0.00000000E+00
  0.00000000E+00  0.00000000E+00  0.00000000E+00
  0.00000000E+00  0.00000000E+00  0.00000000E+00
  0.00000000E+00  0.00000000E+00  0.00000000E+00
  0.00000000E+00  0.00000000E+00  0.00000000E+00
  0.00000000E+00  0.00000000E+00  0.00000000E+00
  0.00000000E+00  0.00000000E+00  0.00000000E+00
  0.00000000E+00  0.00000000E+00  0.00000000E+00
  0.00000000E+00  0.00000000E+00  0.00000000E+00
  0.00000000E+00  0.00000000E+00  0.00000000E+00
  0.00000000E+00  0.00000000E+00  0.00000000E+00
  0.00000000E+00  0.00000000E+00  0.00000000E+00
  0.00000000E+00  0.00000000E+00  0.00000000E+00
  0.00000000E+00  0.00000000E+00  0.00000000E+00
  0.00000000E+00  0.00000000E+00  0.00000000E+00
  0.00000000E+00  0.00000000E+00  0.00000000E+00
  0.00000000E+00  0.00000000E+00  0.00000000E+00
  0.00000000E+00  0.00000000E+00  0.00000000E+00
  0.00000000E+00  0.00000000E+00  0.00000000E+00
  0.00000000E+00  0.00000000E+00  0.00000000E+00
  0.00000000E+00  0.00000000E+00  0.00000000E+00
  0.00000000E+00  0.00000000E+00  0.00000000E+00
  0.00000000E+00  0.00000000E+00  0.00000000E+00
  0.00000000E+00  0.00000000E+00  0.00000000E+00
  0.00000000E+00  0.00000000E+00  0.00000000E+00
  0.00000000E+00  0.00000000E+00  0.00000000E+00
  0.00000000E+00  0.00000000E+00  0.00000000E+00
  0.00000000E+00  0.00000000E+00  0.00000000E+00
  0.00000000E+00  0.00000000E+00  0.00000000E+00
  0.00000000E+00  0.00000000E+00  0.00000000E+00
  0.00000000E+00  0.00000000E+00  0.00000000E+00
  0.00000000E+00  0.00000000E+00  0.00000000E+00
  0.00000000E+00  0.00000000E+00  0.00000000E+00
  0.00000000E+00  0.00000000E+00  0.00000000E+00
  0.00000000E+00  0.00000000E+00  0.00000000E+00
  0.00000000E+00  0.00000000E+00  0.00000000E+00
  0.00000000E+00  0.00000000E+00  0.00000000E+00
  0.00000000E+00  0.00000000E+00  0.00000000E+00
  0.00000000E+00  0.00000000E+00  0.00000000E+00
  0.00000000E+00  0.00000000E+00  0.00000000E+00
  0.00000000E+00  0.00000000E+00  0.00000000E+00
  0.00000000E+00  0.00000000E+00  0.00000000E+00
  0.00000000E+00  0.00000000E+00  0.00000000E+00
  0.00000000E+00  0.00000000E+00  0.00000000E+00
  0.00000000E+00  0.00000000E+00  0.00000000E+00
  0.00000000E+00  0.00000000E+00  0.00000000E+00
  0.00000000E+00  0.00000000E+00  0.00000000E+00
  0.00000000E+00  0.00000000E+00  0.00000000E+00
  0.00000000E+00  0.00000000E+00  0.00000000E+00
  0.00000000E+00  0.00000000E+00  0.00000000E+00
  0.00000000E+00  0.00000000E+00  0.00000000E+00
  0.00000000E+00  0.00000000E+00  0.00000000E+00
  0.00000000E+00  0.00000000E+00  0.00000000E+00
