&control
 calculation = 'scf'
 wf_collect = .true.
 verbosity = 'high'
 outdir='temp'
 pseudo_dir="~/Pseudopotential/pseudo-ONCV-proj/"
 etot_conv_thr=1d-6,
 forc_conv_thr=1d-5,
 nstep=1000
/

&system
 input_dft = "pbe0" ! test smearing pbe level 
 !exx_fraction = 0.375
 !screening_parameter=0.2
 ibrav = 0
 !a = 12.994354248
 !c = 15.612038612
 nat = 191
 ntyp = 3
 ecutwfc = 80 ! o 70 
 ecutfock = 160 !
 nspin = 2
 !tot_magnetization = 2
 starting_magnetization(1) = 0.5 ! 0.6, 0.8, 1
 starting_magnetization(2) = 0
 starting_magnetization(3) = 0 ! 0.1
 starting_magnetization(4) = 1
 ! tot_magnetization = 2
 occupations = "smearing"
 degauss = 0.0001 ! test 0.001, 0.005
 tot_charge = +2
 nbnd = 1260 ! see this change
 force_symmorphic=.true. !Yambo require this
/

&electrons
 conv_thr = 1e-09
 electron_maxstep = 100
 mixing_beta = 0.4
 adaptive_thr = .TRUE.
/

&ions
/
&cell
/
ATOMIC_SPECIES
Zn  0.0  Zn_ONCV_PBE-1.0.upf
O  0.0  O_ONCV_PBE-1.0.upf
Mo 0.0 Mo_ONCV_PBE-1.0.upf

K_POINTS gamma
CELL_PARAMETERS (angstrom)
    12.9943542480000005    0.0000000000000000    0.0000000000000000
    -6.4971766471999999   11.2534400587000007    0.0000000000000000
     0.0000000000000000    0.0000000000000000   15.6120386123999992
ATOMIC_POSITIONS (crystal)
Zn         0.1665881161688426  0.0834118918311581  0.1655525546986450
Zn         0.1667009163595261  0.0832990916404746  0.4997451540699396
Zn         0.1665228227160516  0.0834771852839490  0.8336773989952840
Zn         0.1660968990801733  0.3330484565400870  0.1657095515137428
Zn         0.1651062987143940  0.3325531563571975  0.4995659078351065
Zn         0.1662979977397393  0.3331490058698701  0.8337289312129845
Zn         0.1665881161688426  0.5831762013376862  0.1655525546986450
Zn         0.1667009163595261  0.5834018017190531  0.4997451540699396
Zn         0.1665228227160516  0.5830456144321041  0.8336773989952840
Zn         0.1669618799083020  0.8334809169541489  0.1655500107253149
Zn         0.1678566940433938  0.8339283240216949  0.5001370741598185
Zn         0.1669333320035320  0.8334666430017641  0.8338041420284596
Zn         0.4165190830458510  0.0830381280916987  0.1655500107253149
Zn         0.4160716759783049  0.0821433139566068  0.5001370741598185
Zn         0.4165333569982359  0.0830666759964687  0.8338041420284596
Zn         0.4152585487982178  0.3324637346839119  0.1657915019716653
Zn         0.4072174653259923  0.3271521361456450  0.5017305218001618
Zn         0.4173283392510815  0.3337058262212211  0.8335161814874238
Zn         0.4152585487982178  0.5827947831142997  0.1657915019716653
Zn         0.4072174653259923  0.5800652981803414  0.5017305218001618
Zn         0.4173283392510815  0.5836224820298547  0.8335161814874238
Zn         0.4165190830458510  0.8334809169541489  0.1655500107253149
Zn         0.4160716759783049  0.8339283240216949  0.5001370741598185
Zn         0.4165333569982359  0.8334666430017641  0.8338041420284596
Zn         0.6668237986623138  0.0834118918311581  0.1655525546986450
Zn         0.6665981982809469  0.0832990916404746  0.4997451540699396
Zn         0.6669543855678959  0.0834771852839490  0.8336773989952840
Zn         0.6672052168857003  0.3324637346839119  0.1657915019716653
Zn         0.6699347018196586  0.3271521361456450  0.5017305218001618
Zn         0.6663775179701453  0.3337058262212211  0.8335161814874238
Zn         0.6666666870000029  0.5833333129999971  0.1663381792633162
Zn         0.6666666870000029  0.5833333129999971  0.8349197126315073
Zn         0.6672052168857003  0.8347414512017822  0.1657915019716653
Zn         0.6699347018196586  0.8427825346740077  0.5017305218001618
Zn         0.6663775179701453  0.8326716607489184  0.8335161814874238
Zn         0.9169515734599150  0.0839031089198274  0.1657095515137428
Zn         0.9174468736428051  0.0848937092856067  0.4995659078351065
Zn         0.9168510241301324  0.0837020102602614  0.8337289312129845
Zn         0.9169515734599150  0.3330484565400870  0.1657095515137428
Zn         0.9174468736428051  0.3325531563571975  0.4995659078351065
Zn         0.9168510241301324  0.3331490058698701  0.8337289312129845
Zn         0.9175362953160906  0.5827947831142997  0.1657915019716653
Zn         0.9228478938543577  0.5800652981803414  0.5017305218001618
Zn         0.9162942037787811  0.5836224820298547  0.8335161814874238
Zn         0.9175362953160906  0.8347414512017822  0.1657915019716653
Zn         0.9228478938543577  0.8427825346740077  0.5017305218001618
Zn         0.9162942037787811  0.8326716607489184  0.8335161814874238
Zn         0.0833123631707854  0.1666876448292153 -0.0002041376235600
Zn         0.0832988923470441  0.1667011156529566  0.3322555252862208
Zn         0.0832529126030199  0.1667470953969808  0.6667976381484724
Zn         0.0833123631707854  0.4166247413415684 -0.0002041376235600
Zn         0.0832988923470441  0.4165977996940858  0.3322555252862208
Zn         0.0832529126030199  0.4165058402060375  0.6667976381484724
Zn         0.0833107626164792  0.6666559243579602 -0.0003295864879639
Zn         0.0849707887438638  0.6673966919085575  0.3318564872316859
Zn         0.0842765038091008  0.6671811146835005  0.6677643805093896
Zn         0.0833107626164792  0.9166548762585220 -0.0003295864879639
Zn         0.0849707887438638  0.9175741348353093  0.3318564872316859
Zn         0.0842765038091008  0.9170954271256033  0.6677643805093896
Zn         0.3333451537414804  0.1666892453835214 -0.0003295864879639
Zn         0.3324258951646932  0.1650292192561369  0.3318564872316859
Zn         0.3329046028743991  0.1657235041908999  0.6677643805093896
Zn         0.3333420352857633  0.4166710331428847 -0.0003276463900244
Zn         0.3317366197633885  0.4158683253816972  0.3320950355713040
Zn         0.3320020030403986  0.4160010170202024  0.6685142107989213
Zn         0.3333451537414804  0.6666559243579602 -0.0003295864879639
Zn         0.3324258951646932  0.6673966919085575  0.3318564872316859
Zn         0.3329046028743991  0.6671811146835005  0.6677643805093896
Zn         0.3333333429999996  0.9166666870000029 -0.0002985622562682
Zn         0.3333333429999996  0.9166666870000029  0.3322640531741046
Zn         0.3333333429999996  0.9166666870000029  0.6668729553627488
Zn         0.5833440756420398  0.1666892453835214 -0.0003295864879639
Zn         0.5826033080914425  0.1650292192561369  0.3318564872316859
Zn         0.5828188853164995  0.1657235041908999  0.6677643805093896
Zn         0.5832526014438799  0.4165052638877681  0.0011994698059375
Zn         0.5817888131340611  0.4135776872681305  0.3268950871944116
Zn         0.5835760974467527  0.4171522558935144  0.6651171456899432
Zn         0.5832526014438799  0.6667473985561201  0.0011994698059375
Zn         0.5817888131340611  0.6682111868659389  0.3268950871944116
Zn         0.5835760974467527  0.6664239025532473  0.6651171456899432
Zn         0.5833440756420398  0.9166548762585220 -0.0003295864879639
Zn         0.5826033080914425  0.9175741348353093  0.3318564872316859
Zn         0.5828188853164995  0.9170954271256033  0.6677643805093896
Zn         0.8333752586584317  0.1666876448292153 -0.0002041376235600
Zn         0.8334022003059141  0.1667011156529566  0.3322555252862208
Zn         0.8334941597939622  0.1667470953969808  0.6667976381484724
Zn         0.8333289668571152  0.4166710331428847 -0.0003276463900244
Zn         0.8341316746183027  0.4158683253816972  0.3320950355713040
Zn         0.8339989829797977  0.4160010170202024  0.6685142107989213
Zn         0.8334947361122318  0.6667473985561201  0.0011994698059375
Zn         0.8364223127318696  0.6682111868659389  0.3268950871944116
Zn         0.8328477441064854  0.6664239025532473  0.6651171456899432
Zn         0.8333289668571152  0.9166579947142393 -0.0003276463900244
Zn         0.8341316746183027  0.9182634102366143  0.3320950355713040
Zn         0.8339989829797977  0.9179980269596039  0.6685142107989213
O         0.1665346131617735  0.0834653948382273  0.2932734576961259
O         0.1667694713386794  0.0832305366613212  0.6265885818526525
O         0.1666660516226509  0.0833339563773497  0.9604692593111304
O         0.1665060826061089  0.3332530483030550  0.2934538572221910
O         0.1671511056834804  0.3335755598417408  0.6263391859458554
O         0.1668714556829642  0.3334357348414828  0.9605031071039419
O         0.1665346131617735  0.5830691953235477  0.2932734576961259
O         0.1667694713386794  0.5835389116773601  0.6265885818526525
O         0.1666660516226509  0.5833320722453031  0.9604692593111304
O         0.1667020459202379  0.8333509999601171  0.2932441777861632
O         0.1661866758363479  0.8330933149181722  0.6268253231406576
O         0.1665545109853029  0.8332772324926495  0.9605190826883567
O         0.4166490000398830  0.0832979620797629  0.2932441777861632
O         0.4169066850818280  0.0838133321636527  0.6268253231406576
O         0.4167227675073504  0.0834454970146977  0.9605190826883567
O         0.4163068141407015  0.3331687641431106  0.2945469104468081
O         0.4179079733127237  0.3347891714083411  0.6269505867527135
O         0.4175925393365068  0.3339127197669846  0.9603477855245297
O         0.4163068141407015  0.5831380189975847  0.2945469104468081
O         0.4179079733127237  0.5831187709043765  0.6269505867527135
O         0.4175925393365068  0.5836797885695159  0.9603477855245297
O         0.4166490000398830  0.8333509999601171  0.2932441777861632
O         0.4169066850818280  0.8330933149181722  0.6268253231406576
O         0.4167227675073504  0.8332772324926495  0.9605190826883567
O         0.6669308046764523  0.0834653948382273  0.2932734576961259
O         0.6664610883226399  0.0832305366613212  0.6265885818526525
O         0.6666679277546969  0.0833339563773497  0.9604692593111304
O         0.6668619810024153  0.3331687641431106  0.2945469104468081
O         0.6668812290956235  0.3347891714083411  0.6269505867527135
O         0.6663202114304841  0.3339127197669846  0.9603477855245297
O         0.6666666870000029  0.5833333129999971  0.2981103923589948
O         0.6666666870000029  0.5833333129999971  0.9611284883068666
O         0.6668619810024153  0.8336931858592987  0.2945469104468081
O         0.6668812290956235  0.8320920266872764  0.6269505867527135
O         0.6663202114304841  0.8324074606634934  0.9603477855245297
O         0.9167469816969475  0.0834939253938918  0.2934538572221910
O         0.9164244701582617  0.0828489023165203  0.6263391859458554
O         0.9165642951585197  0.0831285523170364  0.9605031071039419
O         0.9167469816969475  0.3332530483030550  0.2934538572221910
O         0.9164244701582617  0.3335755598417408  0.6263391859458554
O         0.9165642951585197  0.3334357348414828  0.9605031071039419
O         0.9168312658568919  0.5831380189975847  0.2945469104468081
O         0.9152108585916613  0.5831187709043765  0.6269505867527135
O         0.9160873102330179  0.5836797885695159  0.9603477855245297
O         0.9168312658568919  0.8336931858592987  0.2945469104468081
O         0.9152108585916613  0.8320920266872764  0.6269505867527135
O         0.9160873102330179  0.8324074606634934  0.9603477855245297
O         0.0833452022132585  0.1666548057867422  0.1270370881104718
O         0.0836129611013242  0.1663870468986766  0.4598878244626352
O         0.0833294632872268  0.1666705447127739  0.7933650895917013
O         0.0833452022132585  0.4166904194265145  0.1270370881104718
O         0.0836129611013242  0.4172259372026459  0.4598878244626352
O         0.0833294632872268  0.4166589415744513  0.7933650895917013
O         0.0832300218623571  0.6666221375474050  0.1270942382547027
O         0.0838187071755186  0.6674278747296954  0.4595854189957695
O         0.0828180434829720  0.6665286912626627  0.7938706878413548
O         0.0832300218623571  0.9166079223149554  0.1270942382547027
O         0.0838187071755186  0.9163908704458261  0.4595854189957695
O         0.0828180434829720  0.9162893902203125  0.7938706878413548
O         0.3333921076850474  0.1667699861376435  0.1270942382547027
O         0.3336091595541764  0.1661813008244821  0.4595854189957695
O         0.3337106397796901  0.1671819645170287  0.7938706878413548
O         0.3333548299590538  0.4166774304795301  0.1272833096652052
O         0.3341983723889947  0.4170992016945003  0.4600063099093528
O         0.3337320802902771  0.4168660556451416  0.7942563405545683
O         0.3333921076850474  0.6666221375474050  0.1270942382547027
O         0.3336091595541764  0.6674278747296954  0.4595854189957695
O         0.3337106397796901  0.6665286912626627  0.7938706878413548
O         0.3333333429999996  0.9166666870000029  0.1269074141448856
O         0.3333333429999996  0.9166666870000029  0.4597462177979588
O         0.3333333429999996  0.9166666870000029  0.7934836893564540
O         0.5833778624525950  0.1667699861376435  0.1270942382547027
O         0.5825721252703046  0.1661813008244821  0.4595854189957695
O         0.5834713087373373  0.1671819645170287  0.7938706878413548
O         0.5834262699987113  0.4168526009974310  0.1292368002202444
O         0.5847887657969757  0.4195775925939601  0.4643724615952879
O         0.5843875839762989  0.4187752289526071  0.7903322922664296
O         0.5834262699987113  0.6665737300012887  0.1292368002202444
O         0.5847887657969757  0.6652112342030243  0.4643724615952879
O         0.5843875839762989  0.6656124160237011  0.7903322922664296
O         0.5833778624525950  0.9166079223149554  0.1270942382547027
O         0.5825721252703046  0.9163908704458261  0.4595854189957695
O         0.5834713087373373  0.9162893902203125  0.7938706878413548
O         0.8333095805734853  0.1666548057867422  0.1270370881104718
O         0.8327740627973536  0.1663870468986766  0.4598878244626352
O         0.8333410584255490  0.1666705447127739  0.7933650895917013
O         0.8333225695204700  0.4166774304795301  0.1272833096652052
O         0.8329007983054999  0.4170992016945003  0.4600063099093528
O         0.8331339443548585  0.4168660556451416  0.7942563405545683
O         0.8331473990025692  0.6665737300012887  0.1292368002202444
O         0.8304224074060403  0.6652112342030243  0.4643724615952879
O         0.8312247710473929  0.6656124160237011  0.7903322922664296
O         0.8333225695204700  0.9166452000409484  0.1272833096652052
O         0.8329007983054999  0.9158016576110080  0.4600063099093528
O         0.8331339443548585  0.9162679497097254  0.7942563405545683
Mo         0.6666666870000029  0.5833333129999971  0.4971046253582772
