  Zn2 O2                                
   1.00000000000000     
    12.9943542480000005    0.0000000000000000    0.0000000000000000
    -6.4971766471999999   11.2534400587000007    0.0000000000000000
     0.0000000000000000    0.0000000000000000   15.6120386123999992
   Zn   O    Mo
    95    95     1
Direct
  0.1666002009175171  0.0833998070824835  0.1656396185918871
  0.1667070516816951  0.0832929563183055  0.4994600948475646
  0.1665748022063570  0.0834252057936436  0.8330306733143258
  0.1660782963740981  0.3330391551870462  0.1656596688964996
  0.1647584453369361  0.3323792296684721  0.4996010033719337
  0.1660308242443840  0.3330154191221924  0.8332844045724358
  0.1666002009175171  0.5832003708350352  0.1656396185918871
  0.1667070516816951  0.5834140723633985  0.4994600948475646
  0.1665748022063570  0.5831495734127081  0.8330306733143258
  0.1669394639269446  0.8334697089634741  0.1656208994625038
  0.1680940831119080  0.8340470185559448  0.4997826487043270
  0.1669819336645184  0.8334909438322572  0.8331567275401214
  0.4165302910365260  0.0830605440730560  0.1656208994625038
  0.4159529814440479  0.0819059248880927  0.4997826487043270
  0.4165090561677428  0.0830180743354824  0.8331567275401214
  0.4147113452243327  0.3321540733155228  0.1658965504065690
  0.4064561435928929  0.3269608563633252  0.5031450169721170
  0.4175843490118978  0.3335511532424926  0.8333768742086722
  0.4147113452243327  0.5825572409088036  0.1658965504065690
  0.4064561435928929  0.5794952562295618  0.5031450169721170
  0.4175843490118978  0.5840331647693991  0.8333768742086722
  0.4165302910365260  0.8334697089634741  0.1656208994625038
  0.4159529814440479  0.8340470185559448  0.4997826487043270
  0.4165090561677428  0.8334909438322572  0.8331567275401214
  0.6667996291649648  0.0833998070824835  0.1656396185918871
  0.6665859276366015  0.0832929563183055  0.4994600948475646
  0.6668504265872919  0.0834252057936436  0.8330306733143258
  0.6674427590911964  0.3321540733155228  0.1658965504065690
  0.6705047437704382  0.3269608563633252  0.5031450169721170
  0.6659668352306009  0.3335511532424926  0.8333768742086722
  0.6666666870000029  0.5833333129999971  0.1663421940410639
  0.6666666870000029  0.5833333129999971  0.8366233656738212
  0.6674427590911964  0.8352886547756673  0.1658965504065690
  0.6705047437704382  0.8435438564071074  0.5031450169721170
  0.6659668352306009  0.8324156509881022  0.8333768742086722
  0.9169608748129492  0.0839217116259025  0.1656596688964996
  0.9176208003315304  0.0852415626630646  0.4996010033719337
  0.9169846108778099  0.0839691837556168  0.8332844045724358
  0.9169608748129492  0.3330391551870462  0.1656596688964996
  0.9176208003315304  0.3323792296684721  0.4996010033719337
  0.9169846108778099  0.3330154191221924  0.8332844045724358
  0.9178459566844795  0.5825572409088036  0.1658965504065690
  0.9230391736366774  0.5794952562295618  0.5031450169721170
  0.9164488767575101  0.5840331647693991  0.8333768742086722
  0.9178459566844795  0.8352886547756673  0.1658965504065690
  0.9230391736366774  0.8435438564071074  0.5031450169721170
  0.9164488767575101  0.8324156509881022  0.8333768742086722
  0.0833458281410357  0.1666541798589650  0.9993941553691515
  0.0832904343028844  0.1667095736971163  0.3322348207998313
  0.0833157273990820  0.1666842806009187  0.6663253901739467
  0.0833458281410357  0.4166916712820761  0.9993941553691515
  0.0832904343028844  0.4165808836057736  0.3322348207998313
  0.0833157273990820  0.4166314697981475  0.6663253901739467
  0.0834419064093674  0.6667290901869125  0.9992494675006505
  0.0848749835207328  0.6673647271458455  0.3321533330710596
  0.0842187079011836  0.6674314891147163  0.6671943733652700
  0.0834419064093674  0.9167128542224580  0.9992494675006505
  0.0848749835207328  0.9175102943748833  0.3321533330710596
  0.0842187079011836  0.9167872567864702  0.6671943733652700
  0.3332871757775445  0.1665581015906333  0.9992494675006505
  0.3324897356251121  0.1651250244792677  0.3321533330710596
  0.3332127732135322  0.1657813000988170  0.6671943733652700
  0.3333750758573851  0.4166875534286957  0.9991641069489408
  0.3316119790471742  0.4158060050235867  0.3325800056882847
  0.3321405729406979  0.4160703019703485  0.6694358771446858
  0.3332871757775445  0.6667290901869125  0.9992494675006505
  0.3324897356251121  0.6673647271458455  0.3321533330710596
  0.3332127732135322  0.6674314891147163  0.6671943733652700
  0.3333333429999996  0.9166666870000029  0.9993439676111410
  0.3333333429999996  0.9166666870000029  0.3320391430543343
  0.3333333429999996  0.9166666870000029  0.6663435125047937
  0.5832709098130875  0.1665581015906333  0.9992494675006505
  0.5826352728541545  0.1651250244792677  0.3321533330710596
  0.5825685108852837  0.1657813000988170  0.6671943733652700
  0.5830924720130592  0.4161850050261267  0.0022767848751925
  0.5818490863157155  0.4136982336314400  0.3266988932930560
  0.5854300402832809  0.4208601415665776  0.6656483759839606
  0.5830924720130592  0.6669075279869408  0.0022767848751925
  0.5818490863157155  0.6681509136842845  0.3266988932930560
  0.5854300402832809  0.6645699597167191  0.6656483759839606
  0.5832709098130875  0.9167128542224580  0.9992494675006505
  0.5826352728541545  0.9175102943748833  0.3321533330710596
  0.5825685108852837  0.9167872567864702  0.6671943733652700
  0.8333083287179238  0.1666541798589650  0.9993941553691515
  0.8334191163942264  0.1667095736971163  0.3322348207998313
  0.8333685302018526  0.1666842806009187  0.6663253901739467
  0.8333124465713044  0.4166875534286957  0.9991641069489408
  0.8341939949764136  0.4158060050235867  0.3325800056882847
  0.8339296980296517  0.4160703019703485  0.6694358771446858
  0.8338149949738735  0.6669075279869408  0.0022767848751925
  0.8363017663685598  0.6681509136842845  0.3266988932930560
  0.8291398584334226  0.6645699597167191  0.6656483759839606
  0.8333124465713044  0.9166249541426172  0.9991641069489408
  0.8341939949764136  0.9183880509528282  0.3325800056882847
  0.8339296980296517  0.9178594570593045  0.6694358771446858
  0.1665943642770039  0.0834056437229968  0.2932652185115434
  0.1668509072898141  0.0831491007101865  0.6260224743939644
  0.1666758773660906  0.0833241306339101  0.9597939112881043
  0.1665657050820353  0.3332828595410182  0.2932921135511755
  0.1674981777198075  0.3337490958599008  0.6261145117922392
  0.1668069656656929  0.3334034898328436  0.9599992303807364
  0.1665943642770039  0.5831886975540159  0.2932652185115434
  0.1668509072898141  0.5837017835796222  0.6260224743939644
  0.1666758773660906  0.5833517237321894  0.9597939112881043
  0.1665831924050901  0.8332915732025470  0.2931988006013829
  0.1663507412630651  0.8331753476315340  0.6261105557457448
  0.1666373075543824  0.8333186307771893  0.9598559359298537
  0.4167084267974535  0.0834168155949106  0.2931988006013829
  0.4168246523684657  0.0836492667369356  0.6261105557457448
  0.4166813692228106  0.0833627004456182  0.9598559359298537
  0.4162855828967168  0.3332263010826019  0.2947364169312479
  0.4185135566100830  0.3352213008542255  0.6277078784747776
  0.4178274664403298  0.3339033567082902  0.9602243813666510
  0.4162855828967168  0.5830592508141088  0.2947364169312479
  0.4185135566100830  0.5832922247558514  0.6277078784747776
  0.4178274664403298  0.5839240787320337  0.9602243813666510
  0.4167084267974535  0.8332915732025470  0.2931988006013829
  0.4168246523684657  0.8331753476315340  0.6261105557457448
  0.4166813692228106  0.8333186307771893  0.9598559359298537
  0.6668113024459841  0.0834056437229968  0.2932652185115434
  0.6662982164203778  0.0831491007101865  0.6260224743939644
  0.6666482762678106  0.0833241306339101  0.9597939112881043
  0.6669407491858912  0.3332263010826019  0.2947364169312479
  0.6667077752441486  0.3352213008542255  0.6277078784747776
  0.6660759212679663  0.3339033567082902  0.9602243813666510
  0.6666666870000029  0.5833333129999971  0.2983208476306209
  0.6666666870000029  0.5833333129999971  0.9625695113884220
  0.6669407491858912  0.8337144171032831  0.2947364169312479
  0.6667077752441486  0.8314864433899171  0.6277078784747776
  0.6660759212679663  0.8321725335596704  0.9602243813666510
  0.9167171704589842  0.0834343029179654  0.2932921135511755
  0.9162509341401017  0.0825018302801931  0.6261145117922392
  0.9165965401671589  0.0831930423343078  0.9599992303807364
  0.9167171704589842  0.3332828595410182  0.2932921135511755
  0.9162509341401017  0.3337490958599008  0.6261145117922392
  0.9165965401671589  0.3334034898328436  0.9599992303807364
  0.9167737289174005  0.5830592508141088  0.2947364169312479
  0.9147787291457766  0.5832922247558514  0.6277078784747776
  0.9160966732917118  0.5839240787320337  0.9602243813666510
  0.9167737289174005  0.8337144171032831  0.2947364169312479
  0.9147787291457766  0.8314864433899171  0.6277078784747776
  0.9160966732917118  0.8321725335596704  0.9602243813666510
  0.0833721906969314  0.1666278173030693  0.1266473167165418
  0.0836039081604518  0.1663960998395489  0.4596281401566969
  0.0833421716683026  0.1666578363316981  0.7926999584218349
  0.0833721906969314  0.4167443963938604  0.1266473167165418
  0.0836039081604518  0.4172078313209083  0.4596281401566969
  0.0833421716683026  0.4166843583366028  0.7926999584218349
  0.0833407319565184  0.6666653387064414  0.1267212627007035
  0.0833849430078722  0.6672697879327685  0.4596594532352908
  0.0828179149795935  0.6665568448898389  0.7932045996170467
  0.0833407319565184  0.9166754312500804  0.1267212627007035
  0.0833849430078722  0.9161151930751137  0.4596594532352908
  0.0828179149795935  0.9162611080897580  0.7932045996170467
  0.3333245987499221  0.1666592760434823  0.1267212627007035
  0.3338848369248885  0.1666150649921284  0.4596594532352908
  0.3337389219102446  0.1671820930204072  0.7932045996170467
  0.3332812085419504  0.4166406197709746  0.1268986748002022
  0.3341386432379531  0.4170693371189760  0.4602893786078495
  0.3337419575642923  0.4168709942821492  0.7947107002117260
  0.3333245987499221  0.6666653387064414  0.1267212627007035
  0.3338848369248885  0.6672697879327685  0.4596594532352908
  0.3337389219102446  0.6665568448898389  0.7932045996170467
  0.3333333429999996  0.9166666870000029  0.1265817539413913
  0.3333333429999996  0.9166666870000029  0.4592194727174514
  0.3333333429999996  0.9166666870000029  0.7926942540736259
  0.5833346612935586  0.1666592760434823  0.1267212627007035
  0.5827302120672315  0.1666150649921284  0.4596594532352908
  0.5834431551101611  0.1671820930204072  0.7932045996170467
  0.5832946653461694  0.4165893916923477  0.1299713328893526
  0.5856076601733473  0.4212153813467177  0.4656115553072676
  0.5846132562759584  0.4192265735519111  0.7908731440110697
  0.5832946653461694  0.6667053346538306  0.1299713328893526
  0.5856076601733473  0.6643923398266527  0.4656115553072676
  0.5846132562759584  0.6653867437240416  0.7908731440110697
  0.5833346612935586  0.9166754312500804  0.1267212627007035
  0.5827302120672315  0.9161151930751137  0.4596594532352908
  0.5834431551101611  0.9162611080897580  0.7932045996170467
  0.8332556036061395  0.1666278173030693  0.1266473167165418
  0.8327921686790914  0.1663960998395489  0.4596281401566969
  0.8333156416633967  0.1666578363316981  0.7926999584218349
  0.8333593802290252  0.4166406197709746  0.1268986748002022
  0.8329306628810238  0.4170693371189760  0.4602893786078495
  0.8331290057178508  0.4168709942821492  0.7947107002117260
  0.8334106083076526  0.6667053346538306  0.1299713328893526
  0.8287846186532826  0.6643923398266527  0.4656115553072676
  0.8307734264480890  0.6653867437240416  0.7908731440110697
  0.8333593802290252  0.9167188214580523  0.1268986748002022
  0.8329306628810238  0.9158613867620494  0.4602893786078495
  0.8331290057178508  0.9162580724357101  0.7947107002117260
  0.6666666870000029  0.5833333129999971  0.5017206815750304
 
  0.00000000E+00  0.00000000E+00  0.00000000E+00
  0.00000000E+00  0.00000000E+00  0.00000000E+00
  0.00000000E+00  0.00000000E+00  0.00000000E+00
  0.00000000E+00  0.00000000E+00  0.00000000E+00
  0.00000000E+00  0.00000000E+00  0.00000000E+00
  0.00000000E+00  0.00000000E+00  0.00000000E+00
  0.00000000E+00  0.00000000E+00  0.00000000E+00
  0.00000000E+00  0.00000000E+00  0.00000000E+00
  0.00000000E+00  0.00000000E+00  0.00000000E+00
  0.00000000E+00  0.00000000E+00  0.00000000E+00
  0.00000000E+00  0.00000000E+00  0.00000000E+00
  0.00000000E+00  0.00000000E+00  0.00000000E+00
  0.00000000E+00  0.00000000E+00  0.00000000E+00
  0.00000000E+00  0.00000000E+00  0.00000000E+00
  0.00000000E+00  0.00000000E+00  0.00000000E+00
  0.00000000E+00  0.00000000E+00  0.00000000E+00
  0.00000000E+00  0.00000000E+00  0.00000000E+00
  0.00000000E+00  0.00000000E+00  0.00000000E+00
  0.00000000E+00  0.00000000E+00  0.00000000E+00
  0.00000000E+00  0.00000000E+00  0.00000000E+00
  0.00000000E+00  0.00000000E+00  0.00000000E+00
  0.00000000E+00  0.00000000E+00  0.00000000E+00
  0.00000000E+00  0.00000000E+00  0.00000000E+00
  0.00000000E+00  0.00000000E+00  0.00000000E+00
  0.00000000E+00  0.00000000E+00  0.00000000E+00
  0.00000000E+00  0.00000000E+00  0.00000000E+00
  0.00000000E+00  0.00000000E+00  0.00000000E+00
  0.00000000E+00  0.00000000E+00  0.00000000E+00
  0.00000000E+00  0.00000000E+00  0.00000000E+00
  0.00000000E+00  0.00000000E+00  0.00000000E+00
  0.00000000E+00  0.00000000E+00  0.00000000E+00
  0.00000000E+00  0.00000000E+00  0.00000000E+00
  0.00000000E+00  0.00000000E+00  0.00000000E+00
  0.00000000E+00  0.00000000E+00  0.00000000E+00
  0.00000000E+00  0.00000000E+00  0.00000000E+00
  0.00000000E+00  0.00000000E+00  0.00000000E+00
  0.00000000E+00  0.00000000E+00  0.00000000E+00
  0.00000000E+00  0.00000000E+00  0.00000000E+00
  0.00000000E+00  0.00000000E+00  0.00000000E+00
  0.00000000E+00  0.00000000E+00  0.00000000E+00
  0.00000000E+00  0.00000000E+00  0.00000000E+00
  0.00000000E+00  0.00000000E+00  0.00000000E+00
  0.00000000E+00  0.00000000E+00  0.00000000E+00
  0.00000000E+00  0.00000000E+00  0.00000000E+00
  0.00000000E+00  0.00000000E+00  0.00000000E+00
  0.00000000E+00  0.00000000E+00  0.00000000E+00
  0.00000000E+00  0.00000000E+00  0.00000000E+00
  0.00000000E+00  0.00000000E+00  0.00000000E+00
  0.00000000E+00  0.00000000E+00  0.00000000E+00
  0.00000000E+00  0.00000000E+00  0.00000000E+00
  0.00000000E+00  0.00000000E+00  0.00000000E+00
  0.00000000E+00  0.00000000E+00  0.00000000E+00
  0.00000000E+00  0.00000000E+00  0.00000000E+00
  0.00000000E+00  0.00000000E+00  0.00000000E+00
  0.00000000E+00  0.00000000E+00  0.00000000E+00
  0.00000000E+00  0.00000000E+00  0.00000000E+00
  0.00000000E+00  0.00000000E+00  0.00000000E+00
  0.00000000E+00  0.00000000E+00  0.00000000E+00
  0.00000000E+00  0.00000000E+00  0.00000000E+00
  0.00000000E+00  0.00000000E+00  0.00000000E+00
  0.00000000E+00  0.00000000E+00  0.00000000E+00
  0.00000000E+00  0.00000000E+00  0.00000000E+00
  0.00000000E+00  0.00000000E+00  0.00000000E+00
  0.00000000E+00  0.00000000E+00  0.00000000E+00
  0.00000000E+00  0.00000000E+00  0.00000000E+00
  0.00000000E+00  0.00000000E+00  0.00000000E+00
  0.00000000E+00  0.00000000E+00  0.00000000E+00
  0.00000000E+00  0.00000000E+00  0.00000000E+00
  0.00000000E+00  0.00000000E+00  0.00000000E+00
  0.00000000E+00  0.00000000E+00  0.00000000E+00
  0.00000000E+00  0.00000000E+00  0.00000000E+00
  0.00000000E+00  0.00000000E+00  0.00000000E+00
  0.00000000E+00  0.00000000E+00  0.00000000E+00
  0.00000000E+00  0.00000000E+00  0.00000000E+00
  0.00000000E+00  0.00000000E+00  0.00000000E+00
  0.00000000E+00  0.00000000E+00  0.00000000E+00
  0.00000000E+00  0.00000000E+00  0.00000000E+00
  0.00000000E+00  0.00000000E+00  0.00000000E+00
  0.00000000E+00  0.00000000E+00  0.00000000E+00
  0.00000000E+00  0.00000000E+00  0.00000000E+00
  0.00000000E+00  0.00000000E+00  0.00000000E+00
  0.00000000E+00  0.00000000E+00  0.00000000E+00
  0.00000000E+00  0.00000000E+00  0.00000000E+00
  0.00000000E+00  0.00000000E+00  0.00000000E+00
  0.00000000E+00  0.00000000E+00  0.00000000E+00
  0.00000000E+00  0.00000000E+00  0.00000000E+00
  0.00000000E+00  0.00000000E+00  0.00000000E+00
  0.00000000E+00  0.00000000E+00  0.00000000E+00
  0.00000000E+00  0.00000000E+00  0.00000000E+00
  0.00000000E+00  0.00000000E+00  0.00000000E+00
  0.00000000E+00  0.00000000E+00  0.00000000E+00
  0.00000000E+00  0.00000000E+00  0.00000000E+00
  0.00000000E+00  0.00000000E+00  0.00000000E+00
  0.00000000E+00  0.00000000E+00  0.00000000E+00
  0.00000000E+00  0.00000000E+00  0.00000000E+00
  0.00000000E+00  0.00000000E+00  0.00000000E+00
  0.00000000E+00  0.00000000E+00  0.00000000E+00
  0.00000000E+00  0.00000000E+00  0.00000000E+00
  0.00000000E+00  0.00000000E+00  0.00000000E+00
  0.00000000E+00  0.00000000E+00  0.00000000E+00
  0.00000000E+00  0.00000000E+00  0.00000000E+00
  0.00000000E+00  0.00000000E+00  0.00000000E+00
  0.00000000E+00  0.00000000E+00  0.00000000E+00
  0.00000000E+00  0.00000000E+00  0.00000000E+00
  0.00000000E+00  0.00000000E+00  0.00000000E+00
  0.00000000E+00  0.00000000E+00  0.00000000E+00
  0.00000000E+00  0.00000000E+00  0.00000000E+00
  0.00000000E+00  0.00000000E+00  0.00000000E+00
  0.00000000E+00  0.00000000E+00  0.00000000E+00
  0.00000000E+00  0.00000000E+00  0.00000000E+00
  0.00000000E+00  0.00000000E+00  0.00000000E+00
  0.00000000E+00  0.00000000E+00  0.00000000E+00
  0.00000000E+00  0.00000000E+00  0.00000000E+00
  0.00000000E+00  0.00000000E+00  0.00000000E+00
  0.00000000E+00  0.00000000E+00  0.00000000E+00
  0.00000000E+00  0.00000000E+00  0.00000000E+00
  0.00000000E+00  0.00000000E+00  0.00000000E+00
  0.00000000E+00  0.00000000E+00  0.00000000E+00
  0.00000000E+00  0.00000000E+00  0.00000000E+00
  0.00000000E+00  0.00000000E+00  0.00000000E+00
  0.00000000E+00  0.00000000E+00  0.00000000E+00
  0.00000000E+00  0.00000000E+00  0.00000000E+00
  0.00000000E+00  0.00000000E+00  0.00000000E+00
  0.00000000E+00  0.00000000E+00  0.00000000E+00
  0.00000000E+00  0.00000000E+00  0.00000000E+00
  0.00000000E+00  0.00000000E+00  0.00000000E+00
  0.00000000E+00  0.00000000E+00  0.00000000E+00
  0.00000000E+00  0.00000000E+00  0.00000000E+00
  0.00000000E+00  0.00000000E+00  0.00000000E+00
  0.00000000E+00  0.00000000E+00  0.00000000E+00
  0.00000000E+00  0.00000000E+00  0.00000000E+00
  0.00000000E+00  0.00000000E+00  0.00000000E+00
  0.00000000E+00  0.00000000E+00  0.00000000E+00
  0.00000000E+00  0.00000000E+00  0.00000000E+00
  0.00000000E+00  0.00000000E+00  0.00000000E+00
  0.00000000E+00  0.00000000E+00  0.00000000E+00
  0.00000000E+00  0.00000000E+00  0.00000000E+00
  0.00000000E+00  0.00000000E+00  0.00000000E+00
  0.00000000E+00  0.00000000E+00  0.00000000E+00
  0.00000000E+00  0.00000000E+00  0.00000000E+00
  0.00000000E+00  0.00000000E+00  0.00000000E+00
  0.00000000E+00  0.00000000E+00  0.00000000E+00
  0.00000000E+00  0.00000000E+00  0.00000000E+00
  0.00000000E+00  0.00000000E+00  0.00000000E+00
  0.00000000E+00  0.00000000E+00  0.00000000E+00
  0.00000000E+00  0.00000000E+00  0.00000000E+00
  0.00000000E+00  0.00000000E+00  0.00000000E+00
  0.00000000E+00  0.00000000E+00  0.00000000E+00
  0.00000000E+00  0.00000000E+00  0.00000000E+00
  0.00000000E+00  0.00000000E+00  0.00000000E+00
  0.00000000E+00  0.00000000E+00  0.00000000E+00
  0.00000000E+00  0.00000000E+00  0.00000000E+00
  0.00000000E+00  0.00000000E+00  0.00000000E+00
  0.00000000E+00  0.00000000E+00  0.00000000E+00
  0.00000000E+00  0.00000000E+00  0.00000000E+00
  0.00000000E+00  0.00000000E+00  0.00000000E+00
  0.00000000E+00  0.00000000E+00  0.00000000E+00
  0.00000000E+00  0.00000000E+00  0.00000000E+00
  0.00000000E+00  0.00000000E+00  0.00000000E+00
  0.00000000E+00  0.00000000E+00  0.00000000E+00
  0.00000000E+00  0.00000000E+00  0.00000000E+00
  0.00000000E+00  0.00000000E+00  0.00000000E+00
  0.00000000E+00  0.00000000E+00  0.00000000E+00
  0.00000000E+00  0.00000000E+00  0.00000000E+00
  0.00000000E+00  0.00000000E+00  0.00000000E+00
  0.00000000E+00  0.00000000E+00  0.00000000E+00
  0.00000000E+00  0.00000000E+00  0.00000000E+00
  0.00000000E+00  0.00000000E+00  0.00000000E+00
  0.00000000E+00  0.00000000E+00  0.00000000E+00
  0.00000000E+00  0.00000000E+00  0.00000000E+00
  0.00000000E+00  0.00000000E+00  0.00000000E+00
  0.00000000E+00  0.00000000E+00  0.00000000E+00
  0.00000000E+00  0.00000000E+00  0.00000000E+00
  0.00000000E+00  0.00000000E+00  0.00000000E+00
  0.00000000E+00  0.00000000E+00  0.00000000E+00
  0.00000000E+00  0.00000000E+00  0.00000000E+00
  0.00000000E+00  0.00000000E+00  0.00000000E+00
  0.00000000E+00  0.00000000E+00  0.00000000E+00
  0.00000000E+00  0.00000000E+00  0.00000000E+00
  0.00000000E+00  0.00000000E+00  0.00000000E+00
  0.00000000E+00  0.00000000E+00  0.00000000E+00
  0.00000000E+00  0.00000000E+00  0.00000000E+00
  0.00000000E+00  0.00000000E+00  0.00000000E+00
  0.00000000E+00  0.00000000E+00  0.00000000E+00
  0.00000000E+00  0.00000000E+00  0.00000000E+00
  0.00000000E+00  0.00000000E+00  0.00000000E+00
  0.00000000E+00  0.00000000E+00  0.00000000E+00
  0.00000000E+00  0.00000000E+00  0.00000000E+00
  0.00000000E+00  0.00000000E+00  0.00000000E+00
  0.00000000E+00  0.00000000E+00  0.00000000E+00
  0.00000000E+00  0.00000000E+00  0.00000000E+00
