
# Use EPR-II is a special basis set for epr, autoaux creates a large auxiliary basis set
!PBE0 def2-TZVP EXTREMESCF #MORead #EPR-II AUTOAUX RIJCOSX

#%moinp "zfs.gbw" 

# geometry
* xyz +2 3
    H          8.123923766       6.745265323      13.761754883 Z=1.5
    H          8.124396883      13.879055083      11.169538189 Z=1.5
    H          9.584640360      11.349838010      11.169538518 Z=1.5
    H          9.743876961       9.378955903      18.686833160 Z=1.5
    H         11.171488811       8.554724056      16.376927908 Z=1.5
    H          4.869965412      13.879055060      11.169538196 Z=1.5
    H          3.409720796      11.349837456      11.169538226 Z=1.5
    H          6.497180484      15.002399158      18.686833160 Z=1.5
    H          7.957424551       8.531418023      11.169538444 Z=1.5
    H          3.250483921       9.378955903      18.686833160 Z=1.5
    H          1.822872227       8.554723876      16.376927780 Z=1.5
    H          9.588000541      14.916323833      13.761754833 Z=1.5
    H         11.214743861      12.098721664      13.761754850 Z=1.5
    H          3.406361614      14.916323441      13.761755145 Z=1.5
    H          4.870437152       6.745265293      13.761754872 Z=1.5
    H          5.036936227       8.531417626      11.169538222 Z=1.5
    H          6.497181120      16.650863127      16.376927674 Z=1.5
    H          6.497181118      11.253436531      21.284847404 Z=1.5
    H          1.779618098      12.098721370      13.761755046 Z=1.5
    H          2.396506609      11.749372343      16.642696811 Z=0.5
    H          8.111514180      13.174266729      19.214533157 Z=0.5
    H          8.967834538      11.691075677      19.214532916 Z=0.5
    H          9.750036136       9.375399902      12.643786581 Z=0.5
    H         10.608015534       8.880045409      14.026994037 Z=0.5
    H          4.882847473      13.174266738      19.214533161 Z=0.5
    H          4.026526453      11.691075375      19.214533137 Z=0.5
    H          7.353501108       8.894968602      19.214532974 Z=0.5
    H          5.640859589       8.894968373      19.214533135 Z=0.5
    H          2.386345439       8.880045300      14.026994109 Z=0.5
    H          8.977011281      14.556757025      16.642696922 Z=0.5
    H         10.597855488      11.749372510      16.642696923 Z=0.5
    H          4.017350985      14.556756777      16.642696757 Z=0.5
    H          6.497181118      11.253436531      10.116159569 Z=0.5
    H          8.118024824       7.454180901      16.642696906 Z=0.5
    H          3.244324746       9.375399902      12.643786581 Z=0.5
    H          4.876336379       7.454180902      16.642696905 Z=0.5
    H          6.497180867      16.000220319      14.026994169 Z=0.5
    H          6.497180485      15.009511161      12.643786581 Z=0.5
    Mo          6.497181118      11.253436531      14.279865218
    O           3.266116188      11.251022194      16.307025381
    O           8.114804147       8.456459931      16.307025381
    O           6.497181118      11.253436531      11.173159569
    O           4.883739649      14.052827804      16.307025381
    O           9.728246048      11.251022194      16.307025381
    O           8.110622825      14.052827804      16.307025381
    O           3.257022448       9.382730924      13.700684885
    O           4.879557463       8.456459931      16.307025381
    O           6.497180247       9.401591996      18.857746876
    O           4.901255087      12.174844809      13.768849413
    O           4.893435440      12.179359485      18.857746876
    O           9.737338435       9.382730924      13.700684885
    O           8.093105642      12.174844809      13.768849413
    O           8.100925290      12.179359485      18.857746876
    O           6.497180484      14.994849118      13.700684885
    O           6.497180248       9.410621347      13.768849413
    Zn          3.147038892      11.216660122      14.352084892
    Zn          8.204101220       8.370517013      14.352084892
    Zn          6.497181118      11.253436531      19.553847404
    Zn          4.853959436      14.173132795      14.352084892
    Zn          9.847323341      11.216660122      14.352084892
    Zn          8.140403048      14.173132795      14.352084892
    Zn          3.235617146       9.370372568      16.955918284
    Zn          4.877618325      12.188491500      16.902883173
    Zn          6.497180246       9.383327966      16.902883173
    Zn          4.842781417      12.208604597      11.622547336
    Zn          9.758743735       9.370372568      16.955918284
    Zn          8.151579315      12.208604597      11.622547336
    Zn          8.116742406      12.188491500      16.902883173
    Zn          6.497180485      15.019565829      16.955918284
    Zn          6.497180245       9.343101772      11.622547336
    Zn          4.790260382       8.370517013      14.352084892
*


# Parallelization
%PAL NPROCS 32 END

# ZFS calculation
%EPRNMR DTENSOR SSANDSO
    DSS     direct
    DSOC    cvw
    PrintLevel 4
END


#%basis
#newgto Mo "SARC-DKH-TZVP" end
#end
