Zn2 O2                                  
   1.00000000000000     
    12.9943542480000005    0.0000000000000000    0.0000000000000000
    -6.4971766471999999   11.2534400587000007    0.0000000000000000
     0.0000000000000000    0.0000000000000000   15.6120386123999992
   Zn   O    V 
    95    95     1
Direct
  0.1666390731731227  0.0833609188268767  0.1662108066577659
  0.1667315036247814  0.0832684883752179  0.5002892895682223
  0.1666810393599150  0.0833189526400844  0.8333863674329578
  0.1664002629493453  0.3331913910302262  0.1663038339540250
  0.1661664940438641  0.3330757053827256  0.5000761927053858
  0.1666097065562937  0.3332968989451004  0.8336144908960463
  0.1666328913900301  0.5832652310247681  0.1662122341335603
  0.1667376524955912  0.5834625727392790  0.5002911556445468
  0.1666729017003306  0.5833512257974505  0.8334063479280758
  0.1667585572097963  0.8333792223395875  0.1661655998439286
  0.1672933606913105  0.8336446058369376  0.5003397653320292
  0.1666963360097924  0.8333516975462487  0.8335407859683670
  0.4166207776604125  0.0832414347902031  0.1661655998439286
  0.4163553941630624  0.0827066313086888  0.5003397653320292
  0.4166483024537513  0.0833036559902069  0.8335407859683670
  0.4159099278650871  0.3328651944039009  0.1665037611448739
  0.4128539174107004  0.3309938810302100  0.5015079024782523
  0.4176293027109637  0.3338696262356393  0.8331400763330308
  0.4158994797036684  0.5830495607565638  0.1664993825757435
  0.4127642163984646  0.5818780414114642  0.5015107740270111
  0.4175891004691721  0.5837743303378176  0.8331514465137175
  0.4166075479868425  0.8333924520131575  0.1661569130910934
  0.4163226158972080  0.8336773841027920  0.5003480597854377
  0.4166213100388205  0.8333786899611795  0.8335525182476076
  0.6667347689752319  0.0833671006099692  0.1662122341335603
  0.6665374272607210  0.0832623395044081  0.5002911556445468
  0.6666487742025495  0.0833270902996688  0.8334063479280758
  0.6669659404693604  0.3328612101027701  0.1664951278183722
  0.6682085278318439  0.3309320551791473  0.5015143252181389
  0.6662613700754036  0.3338453081893391  0.8331482443722820
  0.6666622519319247  0.5833377480680753  0.1670843752619788
  0.6666543532188385  0.5833456467811615  0.8352980266348027
  0.6669504392434362  0.8341005202963316  0.1664993825757435
  0.6681219585885358  0.8372357836015354  0.5015107740270111
  0.6662256696621824  0.8324108995308279  0.8331514465137175
  0.9168086089697738  0.0835997290506540  0.1663038339540250
  0.9169242946172744  0.0838334979561353  0.5000761927053858
  0.9167031010548996  0.0833902854437056  0.8336144908960463
  0.9168142196564233  0.3331857803435767  0.1663005559697766
  0.9169595687775072  0.3330404312224928  0.5000792474788014
  0.9167232138783348  0.3332767861216652  0.8336334470600306
  0.9171387898972299  0.5830340595306396  0.1664951278183722
  0.9190679448208527  0.5817914721681561  0.5015143252181389
  0.9161546918106609  0.5837386299245964  0.8331482443722820
  0.9171348055960991  0.8340900721349129  0.1665037611448739
  0.9190061189697900  0.8371460825892996  0.5015079024782523
  0.9161303737643607  0.8323706972890363  0.8331400763330308
  0.0833475846980178  0.1666524073019815  0.9999820685551981
  0.0832934336915940  0.1667065583084053  0.3330329513258619
  0.0833889914714945  0.1666110005285049  0.6669437158325522
  0.0833542434234928  0.4166839160139162  0.9999919618649784
  0.0833013233164976  0.4165869004101523  0.3330365497822854
  0.0834441599339328  0.4168244714192468  0.6669514482377181
  0.0832480610600328  0.6666081811175388  0.9998166805664752
  0.0842704450564469  0.6670452070025235  0.3327928062710228
  0.0823390553126941  0.6667174770467312  0.6672377852320750
  0.0832368929748242  0.9166344285426007  0.9998103058589010
  0.0842627585146687  0.9172240337574209  0.3328021308833655
  0.0822750134177284  0.9156037052125825  0.6672207421181682
  0.3333655714573993  0.1667630990251752  0.9998103058589010
  0.3327759662425791  0.1657372334853306  0.3328021308833655
  0.3343962947874175  0.1677249785822710  0.6672207421181682
  0.3334412062669330  0.4167245612300832  0.9998146931735974
  0.3323577207207009  0.4161881165681152  0.3329791060752356
  0.3335096498109635  0.4168053601447852  0.6678399663365369
  0.3333557657007518  0.6666138083586830  0.9998179042853934
  0.3327747102777678  0.6670647746799006  0.3327896757825286
  0.3343878301909839  0.6667727308305729  0.6672438438831989
  0.3333229202084595  0.9166770797915333  0.9999301547984132
  0.3333234608023687  0.9166765391976242  0.3326791368605555
  0.3332989812120601  0.9167010187879399  0.6669540332211810
  0.5833918188824612  0.1667519309399665  0.9998166805664752
  0.5829547929974765  0.1657295469435525  0.3327928062710228
  0.5832825229532688  0.1676609366873052  0.6672377852320750
  0.5832240748352930  0.4164340967600921  0.0009659088045666
  0.5823514478190575  0.4146633699827120  0.3304417129875361
  0.5887301083483720  0.4273111000024059  0.6650486478717710
  0.5832138991327724  0.6667861008672276  0.0009698560875862
  0.5823205456657590  0.6676794543342410  0.3304451747466501
  0.5886281134204907  0.6613718865795093  0.6650636915993147
  0.5833861916413170  0.9166442342992553  0.9998179042853934
  0.5829352253200994  0.9172252897222322  0.3327896757825286
  0.5832272691694271  0.9156121698090161  0.6672438438831989
  0.8333160839860767  0.1666457485765065  0.9999919618649784
  0.8334130995898477  0.1666986686835017  0.3330365497822854
  0.8331755285807532  0.1665558320660665  0.6669514482377181
  0.8332897882372023  0.4167102117627977  0.9998164348793352
  0.8338397443248482  0.4161602556751447  0.3329682013361719
  0.8333303478341918  0.4166696521658082  0.6678635680828933
  0.8335659032399079  0.6667759251647070  0.0009659088045666
  0.8353366300172880  0.6676485521809425  0.3304417129875361
  0.8226888999975941  0.6612698916516280  0.6650486478717710
  0.8332754387699168  0.9165587937330670  0.9998146931735974
  0.8338118834318848  0.9176422792792991  0.3329791060752356
  0.8331946398552148  0.9164903501890365  0.6678399663365369
  0.1666208033088949  0.0833791886910973  0.2937712033216968
  0.1669548166909323  0.0830451753090671  0.6271535686006615
  0.1666861752328899  0.0833138167671095  0.9604636329376888
  0.1666429327082710  0.3333105607423974  0.2938266993652405
  0.1675189841643814  0.3337560350459725  0.6269545249512802
  0.1668093075711568  0.3333931803205132  0.9606156199257967
  0.1666128408874599  0.5832224147671070  0.2937673810914632
  0.1669814734011439  0.5839287093198635  0.6271490922585983
  0.1666799232858125  0.5833506402752064  0.9604765623928344
  0.1665808118908600  0.8332904933315888  0.2936983273648792
  0.1662363735804036  0.8331277848093990  0.6270066480795435
  0.1665958659840783  0.8332940612827358  0.9605504278139350
  0.4167095066684112  0.0834191801091393  0.2936983273648792
  0.4168722151906081  0.0837636184195958  0.6270066480795435
  0.4167059387172714  0.0834041260159211  0.9605504278139350
  0.4166833264946419  0.3333466586985168  0.2946551561840351
  0.4205200933551936  0.3365075737387073  0.6273835231918028
  0.4172997589726464  0.3337217971294208  0.9602977926844218
  0.4166704945322834  0.5833374255002681  0.2946530135619057
  0.4204546476993514  0.5841038756012864  0.6273869341105467
  0.4172880336104754  0.5835833524262881  0.9603086232705635
  0.4166970238890997  0.8333029761108932  0.2936894230133476
  0.4168300917337717  0.8331699082662283  0.6270054763417008
  0.4166941122309780  0.8333058877690220  0.9605578852138024
  0.6667775852328930  0.0833871511125395  0.2937673810914632
  0.6660712906801365  0.0830185185988555  0.6271490922585983
  0.6666493597247936  0.0833200687141868  0.9604765623928344
  0.6666868846257827  0.3333354207641293  0.2946431173201773
  0.6660707264416317  0.3363983655825749  0.6273913893498957
  0.6664379435073329  0.3337045183488740  0.9603098067614582
  0.6666611418745134  0.5833388581254866  0.2970366192352145
  0.6666672067372374  0.5833327932627626  0.9614957486331193
  0.6666625744997319  0.8333295054677166  0.2946530135619057
  0.6658961243987136  0.8295453523006486  0.6273869341105467
  0.6664166475737119  0.8327119663895246  0.9603086232705635
  0.9166894392576026  0.0833570592917283  0.2938266993652405
  0.9162439649540275  0.0824810078356180  0.6269545249512802
  0.9166068196794868  0.0831906844288426  0.9606156199257967
  0.9167011034440620  0.3332988965559309  0.2938211489522828
  0.9163156030036674  0.3336843969963326  0.6269543854306576
  0.9166152107278833  0.3333847892721167  0.9606286539700406
  0.9166645792358707  0.5833131153742173  0.2946431173201773
  0.9136016344174251  0.5839292735583683  0.6273913893498957
  0.9162954816511260  0.5835620564926671  0.9603098067614582
  0.9166533413014832  0.8333166735053581  0.2946551561840351
  0.9134924262612927  0.8294799066447993  0.6273835231918028
  0.9162782028705792  0.8327002410273536  0.9602977926844218
  0.0833461615613018  0.1666538304386975  0.1272657736619465
  0.0835051443763177  0.1664948476236816  0.4604008962052788
  0.0833218357454300  0.1666781562545694  0.7936741562970013
  0.0833528273673494  0.4166927559897289  0.1272711181400652
  0.0835373884527115  0.4170279831880421  0.4604017884016045
  0.0833365752905593  0.4166561060767933  0.7936779589600249
  0.0831989237680872  0.6665911939259814  0.1272605530176776
  0.0826702714936758  0.6667703536260134  0.4603522798831605
  0.0828548631549069  0.6665166612697249  0.7937875141413784
  0.0831915258378615  0.9166122297773143  0.1272570761448790
  0.0826252464804398  0.9158807444493533  0.4603651078955622
  0.0828305021179787  0.9163339300280668  0.7937751432873767
  0.3333877702226857  0.1668084661621378  0.1272570761448790
  0.3341192555506467  0.1673747455195596  0.4603651078955622
  0.3336660699719403  0.1671694898820135  0.7937751432873767
  0.3334239493293651  0.4167193079657423  0.1274106451736756
  0.3343084722928822  0.4171739281269282  0.4605092784334346
  0.3336102563830536  0.4168253443821186  0.7940811765144957
  0.3333819044330468  0.6665993542969204  0.1272605813526937
  0.3340913154121949  0.6668162791530392  0.4603443335283401
  0.3336487531368206  0.6665455818781822  0.7937930586096940
  0.3333204871232667  0.9166795128767333  0.1272213828088979
  0.3333070285318769  0.9166929714681160  0.4600352463193573
  0.3333114700782147  0.9166885299217853  0.7937340985756620
  0.5834088060740186  0.1668010682319121  0.1272605530176776
  0.5832296463739866  0.1673297205063236  0.4603522798831605
  0.5834833387302751  0.1671451288450925  0.7937875141413784
  0.5834255613264858  0.4168517052989458  0.1286656638854780
  0.5865498688313835  0.4229171502593658  0.4627891376978823
  0.5843158767519654  0.4185731785897673  0.7914824425317448
  0.5834146593631644  0.6665853406368356  0.1286673120939241
  0.5864131833135318  0.6635868166864682  0.4628544576791853
  0.5842545755282700  0.6657454244717300  0.7914918847642483
  0.5834006457030796  0.9166180955669532  0.1272605813526937
  0.5831837208469608  0.9159086845878051  0.4603443335283401
  0.5834544181218178  0.9163512468631794  0.7937930586096940
  0.8333072440102711  0.1666471646326499  0.1272711181400652
  0.8329720168119508  0.1664626035472949  0.4604017884016045
  0.8333438939232067  0.1666634167094401  0.7936779589600249
  0.8332954527120648  0.4167045472879423  0.1274107902246513
  0.8329041918132347  0.4170958081867653  0.4604920789247444
  0.8332217153103016  0.4167782846897055  0.7941014405150923
  0.8331482947010613  0.6665744386735142  0.1286656638854780
  0.8270828497406342  0.6634501311686165  0.4627891376978823
  0.8314268214102327  0.6656841232480346  0.7914824425317448
  0.8332806920342577  0.9165760506706349  0.1274106451736756
  0.8328260718730718  0.9156915277071178  0.4605092784334346
  0.8331746556178814  0.9163897436169464  0.7940811765144957
  0.6666310952262720  0.5833689047737280  0.4951107414048010
 
  0.00000000E+00  0.00000000E+00  0.00000000E+00
  0.00000000E+00  0.00000000E+00  0.00000000E+00
  0.00000000E+00  0.00000000E+00  0.00000000E+00
  0.00000000E+00  0.00000000E+00  0.00000000E+00
  0.00000000E+00  0.00000000E+00  0.00000000E+00
  0.00000000E+00  0.00000000E+00  0.00000000E+00
  0.00000000E+00  0.00000000E+00  0.00000000E+00
  0.00000000E+00  0.00000000E+00  0.00000000E+00
  0.00000000E+00  0.00000000E+00  0.00000000E+00
  0.00000000E+00  0.00000000E+00  0.00000000E+00
  0.00000000E+00  0.00000000E+00  0.00000000E+00
  0.00000000E+00  0.00000000E+00  0.00000000E+00
  0.00000000E+00  0.00000000E+00  0.00000000E+00
  0.00000000E+00  0.00000000E+00  0.00000000E+00
  0.00000000E+00  0.00000000E+00  0.00000000E+00
  0.00000000E+00  0.00000000E+00  0.00000000E+00
  0.00000000E+00  0.00000000E+00  0.00000000E+00
  0.00000000E+00  0.00000000E+00  0.00000000E+00
  0.00000000E+00  0.00000000E+00  0.00000000E+00
  0.00000000E+00  0.00000000E+00  0.00000000E+00
  0.00000000E+00  0.00000000E+00  0.00000000E+00
  0.00000000E+00  0.00000000E+00  0.00000000E+00
  0.00000000E+00  0.00000000E+00  0.00000000E+00
  0.00000000E+00  0.00000000E+00  0.00000000E+00
  0.00000000E+00  0.00000000E+00  0.00000000E+00
  0.00000000E+00  0.00000000E+00  0.00000000E+00
  0.00000000E+00  0.00000000E+00  0.00000000E+00
  0.00000000E+00  0.00000000E+00  0.00000000E+00
  0.00000000E+00  0.00000000E+00  0.00000000E+00
  0.00000000E+00  0.00000000E+00  0.00000000E+00
  0.00000000E+00  0.00000000E+00  0.00000000E+00
  0.00000000E+00  0.00000000E+00  0.00000000E+00
  0.00000000E+00  0.00000000E+00  0.00000000E+00
  0.00000000E+00  0.00000000E+00  0.00000000E+00
  0.00000000E+00  0.00000000E+00  0.00000000E+00
  0.00000000E+00  0.00000000E+00  0.00000000E+00
  0.00000000E+00  0.00000000E+00  0.00000000E+00
  0.00000000E+00  0.00000000E+00  0.00000000E+00
  0.00000000E+00  0.00000000E+00  0.00000000E+00
  0.00000000E+00  0.00000000E+00  0.00000000E+00
  0.00000000E+00  0.00000000E+00  0.00000000E+00
  0.00000000E+00  0.00000000E+00  0.00000000E+00
  0.00000000E+00  0.00000000E+00  0.00000000E+00
  0.00000000E+00  0.00000000E+00  0.00000000E+00
  0.00000000E+00  0.00000000E+00  0.00000000E+00
  0.00000000E+00  0.00000000E+00  0.00000000E+00
  0.00000000E+00  0.00000000E+00  0.00000000E+00
  0.00000000E+00  0.00000000E+00  0.00000000E+00
  0.00000000E+00  0.00000000E+00  0.00000000E+00
  0.00000000E+00  0.00000000E+00  0.00000000E+00
  0.00000000E+00  0.00000000E+00  0.00000000E+00
  0.00000000E+00  0.00000000E+00  0.00000000E+00
  0.00000000E+00  0.00000000E+00  0.00000000E+00
  0.00000000E+00  0.00000000E+00  0.00000000E+00
  0.00000000E+00  0.00000000E+00  0.00000000E+00
  0.00000000E+00  0.00000000E+00  0.00000000E+00
  0.00000000E+00  0.00000000E+00  0.00000000E+00
  0.00000000E+00  0.00000000E+00  0.00000000E+00
  0.00000000E+00  0.00000000E+00  0.00000000E+00
  0.00000000E+00  0.00000000E+00  0.00000000E+00
  0.00000000E+00  0.00000000E+00  0.00000000E+00
  0.00000000E+00  0.00000000E+00  0.00000000E+00
  0.00000000E+00  0.00000000E+00  0.00000000E+00
  0.00000000E+00  0.00000000E+00  0.00000000E+00
  0.00000000E+00  0.00000000E+00  0.00000000E+00
  0.00000000E+00  0.00000000E+00  0.00000000E+00
  0.00000000E+00  0.00000000E+00  0.00000000E+00
  0.00000000E+00  0.00000000E+00  0.00000000E+00
  0.00000000E+00  0.00000000E+00  0.00000000E+00
  0.00000000E+00  0.00000000E+00  0.00000000E+00
  0.00000000E+00  0.00000000E+00  0.00000000E+00
  0.00000000E+00  0.00000000E+00  0.00000000E+00
  0.00000000E+00  0.00000000E+00  0.00000000E+00
  0.00000000E+00  0.00000000E+00  0.00000000E+00
  0.00000000E+00  0.00000000E+00  0.00000000E+00
  0.00000000E+00  0.00000000E+00  0.00000000E+00
  0.00000000E+00  0.00000000E+00  0.00000000E+00
  0.00000000E+00  0.00000000E+00  0.00000000E+00
  0.00000000E+00  0.00000000E+00  0.00000000E+00
  0.00000000E+00  0.00000000E+00  0.00000000E+00
  0.00000000E+00  0.00000000E+00  0.00000000E+00
  0.00000000E+00  0.00000000E+00  0.00000000E+00
  0.00000000E+00  0.00000000E+00  0.00000000E+00
  0.00000000E+00  0.00000000E+00  0.00000000E+00
  0.00000000E+00  0.00000000E+00  0.00000000E+00
  0.00000000E+00  0.00000000E+00  0.00000000E+00
  0.00000000E+00  0.00000000E+00  0.00000000E+00
  0.00000000E+00  0.00000000E+00  0.00000000E+00
  0.00000000E+00  0.00000000E+00  0.00000000E+00
  0.00000000E+00  0.00000000E+00  0.00000000E+00
  0.00000000E+00  0.00000000E+00  0.00000000E+00
  0.00000000E+00  0.00000000E+00  0.00000000E+00
  0.00000000E+00  0.00000000E+00  0.00000000E+00
  0.00000000E+00  0.00000000E+00  0.00000000E+00
  0.00000000E+00  0.00000000E+00  0.00000000E+00
  0.00000000E+00  0.00000000E+00  0.00000000E+00
  0.00000000E+00  0.00000000E+00  0.00000000E+00
  0.00000000E+00  0.00000000E+00  0.00000000E+00
  0.00000000E+00  0.00000000E+00  0.00000000E+00
  0.00000000E+00  0.00000000E+00  0.00000000E+00
  0.00000000E+00  0.00000000E+00  0.00000000E+00
  0.00000000E+00  0.00000000E+00  0.00000000E+00
  0.00000000E+00  0.00000000E+00  0.00000000E+00
  0.00000000E+00  0.00000000E+00  0.00000000E+00
  0.00000000E+00  0.00000000E+00  0.00000000E+00
  0.00000000E+00  0.00000000E+00  0.00000000E+00
  0.00000000E+00  0.00000000E+00  0.00000000E+00
  0.00000000E+00  0.00000000E+00  0.00000000E+00
  0.00000000E+00  0.00000000E+00  0.00000000E+00
  0.00000000E+00  0.00000000E+00  0.00000000E+00
  0.00000000E+00  0.00000000E+00  0.00000000E+00
  0.00000000E+00  0.00000000E+00  0.00000000E+00
  0.00000000E+00  0.00000000E+00  0.00000000E+00
  0.00000000E+00  0.00000000E+00  0.00000000E+00
  0.00000000E+00  0.00000000E+00  0.00000000E+00
  0.00000000E+00  0.00000000E+00  0.00000000E+00
  0.00000000E+00  0.00000000E+00  0.00000000E+00
  0.00000000E+00  0.00000000E+00  0.00000000E+00
  0.00000000E+00  0.00000000E+00  0.00000000E+00
  0.00000000E+00  0.00000000E+00  0.00000000E+00
  0.00000000E+00  0.00000000E+00  0.00000000E+00
  0.00000000E+00  0.00000000E+00  0.00000000E+00
  0.00000000E+00  0.00000000E+00  0.00000000E+00
  0.00000000E+00  0.00000000E+00  0.00000000E+00
  0.00000000E+00  0.00000000E+00  0.00000000E+00
  0.00000000E+00  0.00000000E+00  0.00000000E+00
  0.00000000E+00  0.00000000E+00  0.00000000E+00
  0.00000000E+00  0.00000000E+00  0.00000000E+00
  0.00000000E+00  0.00000000E+00  0.00000000E+00
  0.00000000E+00  0.00000000E+00  0.00000000E+00
  0.00000000E+00  0.00000000E+00  0.00000000E+00
  0.00000000E+00  0.00000000E+00  0.00000000E+00
  0.00000000E+00  0.00000000E+00  0.00000000E+00
  0.00000000E+00  0.00000000E+00  0.00000000E+00
  0.00000000E+00  0.00000000E+00  0.00000000E+00
  0.00000000E+00  0.00000000E+00  0.00000000E+00
  0.00000000E+00  0.00000000E+00  0.00000000E+00
  0.00000000E+00  0.00000000E+00  0.00000000E+00
  0.00000000E+00  0.00000000E+00  0.00000000E+00
  0.00000000E+00  0.00000000E+00  0.00000000E+00
  0.00000000E+00  0.00000000E+00  0.00000000E+00
  0.00000000E+00  0.00000000E+00  0.00000000E+00
  0.00000000E+00  0.00000000E+00  0.00000000E+00
  0.00000000E+00  0.00000000E+00  0.00000000E+00
  0.00000000E+00  0.00000000E+00  0.00000000E+00
  0.00000000E+00  0.00000000E+00  0.00000000E+00
  0.00000000E+00  0.00000000E+00  0.00000000E+00
  0.00000000E+00  0.00000000E+00  0.00000000E+00
  0.00000000E+00  0.00000000E+00  0.00000000E+00
  0.00000000E+00  0.00000000E+00  0.00000000E+00
  0.00000000E+00  0.00000000E+00  0.00000000E+00
  0.00000000E+00  0.00000000E+00  0.00000000E+00
  0.00000000E+00  0.00000000E+00  0.00000000E+00
  0.00000000E+00  0.00000000E+00  0.00000000E+00
  0.00000000E+00  0.00000000E+00  0.00000000E+00
  0.00000000E+00  0.00000000E+00  0.00000000E+00
  0.00000000E+00  0.00000000E+00  0.00000000E+00
  0.00000000E+00  0.00000000E+00  0.00000000E+00
  0.00000000E+00  0.00000000E+00  0.00000000E+00
  0.00000000E+00  0.00000000E+00  0.00000000E+00
  0.00000000E+00  0.00000000E+00  0.00000000E+00
  0.00000000E+00  0.00000000E+00  0.00000000E+00
  0.00000000E+00  0.00000000E+00  0.00000000E+00
  0.00000000E+00  0.00000000E+00  0.00000000E+00
  0.00000000E+00  0.00000000E+00  0.00000000E+00
  0.00000000E+00  0.00000000E+00  0.00000000E+00
  0.00000000E+00  0.00000000E+00  0.00000000E+00
  0.00000000E+00  0.00000000E+00  0.00000000E+00
  0.00000000E+00  0.00000000E+00  0.00000000E+00
  0.00000000E+00  0.00000000E+00  0.00000000E+00
  0.00000000E+00  0.00000000E+00  0.00000000E+00
  0.00000000E+00  0.00000000E+00  0.00000000E+00
  0.00000000E+00  0.00000000E+00  0.00000000E+00
  0.00000000E+00  0.00000000E+00  0.00000000E+00
  0.00000000E+00  0.00000000E+00  0.00000000E+00
  0.00000000E+00  0.00000000E+00  0.00000000E+00
  0.00000000E+00  0.00000000E+00  0.00000000E+00
  0.00000000E+00  0.00000000E+00  0.00000000E+00
  0.00000000E+00  0.00000000E+00  0.00000000E+00
  0.00000000E+00  0.00000000E+00  0.00000000E+00
  0.00000000E+00  0.00000000E+00  0.00000000E+00
  0.00000000E+00  0.00000000E+00  0.00000000E+00
  0.00000000E+00  0.00000000E+00  0.00000000E+00
  0.00000000E+00  0.00000000E+00  0.00000000E+00
  0.00000000E+00  0.00000000E+00  0.00000000E+00
  0.00000000E+00  0.00000000E+00  0.00000000E+00
  0.00000000E+00  0.00000000E+00  0.00000000E+00
  0.00000000E+00  0.00000000E+00  0.00000000E+00
  0.00000000E+00  0.00000000E+00  0.00000000E+00
  0.00000000E+00  0.00000000E+00  0.00000000E+00
  0.00000000E+00  0.00000000E+00  0.00000000E+00
