Zn2 O2                                  
   1.00000000000000     
    12.9943542480000005    0.0000000000000000    0.0000000000000000
    -6.4971766471999999   11.2534400587000007    0.0000000000000000
     0.0000000000000000    0.0000000000000000   15.6120386123999992
   Zn   O    Nb
    95    95     1
Direct
  0.1666073589278696  0.0833926330721297  0.1659104517370338
  0.1667361456756140  0.0832638463243853  0.5004908777181427
  0.1665901210471574  0.0834098709528419  0.8335804190440115
  0.1663872293558697  0.3331856628219114  0.1662750469961765
  0.1660056137297516  0.3330077431260108  0.5002473344382423
  0.1666929728824158  0.3333328402254168  0.8336196143431991
  0.1666023904344272  0.5832045282512723  0.1659132763290927
  0.1667587358977087  0.5835075292070826  0.5004845712975197
  0.1665841364400933  0.5831699378263551  0.8335972091511508
  0.1667636718798562  0.8333813284304128  0.1659204274271460
  0.1675749980632801  0.8337991848978135  0.5004563391221595
  0.1667907289075643  0.8334014432153509  0.8338215397557676
  0.4166186715695872  0.0832363201201431  0.1659204274271460
  0.4162008151021865  0.0824249939367192  0.5004563391221595
  0.4165985567846491  0.0832092630924350  0.8338215397557676
  0.4157161326989467  0.3327910086337624  0.1661394093593387
  0.4102482076373590  0.3285120472124348  0.5024089729543775
  0.4182562452955594  0.3342038679048329  0.8326794232248886
  0.4157087488089957  0.5829226415362356  0.1661354701932041
  0.4102417629135360  0.5817678218832327  0.5024117225666060
  0.4182031400647190  0.5840620460568147  0.8326978940239584
  0.4166108665415607  0.8333891334584393  0.1659197274923940
  0.4161966488345072  0.8338033511654928  0.5004634554062477
  0.4165777153185388  0.8334222846814612  0.8338344908690019
  0.6667954717487277  0.0833976015655722  0.1659132763290927
  0.6664924707929174  0.0832412561022906  0.5004845712975197
  0.6668300621736449  0.0834158555599060  0.8335972091511508
  0.6670850782525477  0.3327891482410479  0.1661416378941638
  0.6682878804594026  0.3284876949949123  0.5024122022735327
  0.6659864815904157  0.3341656308520697  0.8326945503395322
  0.6666630821710129  0.5833369178289871  0.1676052493149385
  0.6666597230848694  0.5833402769151306  0.8344833522999338
  0.6670773584637644  0.8342912511910043  0.1661354701932041
  0.6682321781167673  0.8397582370864640  0.5024117225666060
  0.6659379539431853  0.8317968599352810  0.8326978940239584
  0.9168143371780886  0.0836127626441296  0.1662750469961765
  0.9169922568739892  0.0839943782702477  0.5002473344382423
  0.9166671597745832  0.0833070191175835  0.8336196143431991
  0.9168182353926824  0.3331817646073176  0.1662774310347643
  0.9170309775854122  0.3329690224145878  0.5002696722149196
  0.9166921523922369  0.3333078476077631  0.8336326009335480
  0.9172108517589521  0.5829149217474523  0.1661416378941638
  0.9215123050050806  0.5817121195405974  0.5024122022735327
  0.9158343691479303  0.5840135184095843  0.8326945503395322
  0.9172089913662376  0.8342838673010533  0.1661394093593387
  0.9214879527875723  0.8397517923626410  0.5024089729543775
  0.9157961320951671  0.8317437547044406  0.8326794232248886
  0.0832946178063949  0.1667053741936044  0.9999616054034917
  0.0833071623423649  0.1666928296576344  0.3329963894026804
  0.0834374784947940  0.1665625135052053  0.6670221274738068
  0.0832981831040627  0.4165873760409440  0.9999688600872858
  0.0833128364871172  0.4166194120484903  0.3329971035396397
  0.0834930310833997  0.4169175279242268  0.6670342396251456
  0.0831696694365505  0.6665522438780300  0.9996562680815373
  0.0844924204016877  0.6671233043842548  0.3325096205841405
  0.0827057080266087  0.6670425294273699  0.6678223660963383
  0.0831585563472643  0.9166183752090760  0.9996505029214120
  0.0844835274220088  0.9173769011566364  0.3325091501839452
  0.0826596862216391  0.9156549682247359  0.6678232928884285
  0.3333816247909240  0.1668414356527350  0.9996505029214120
  0.3326230988433636  0.1655164645779905  0.3325091501839452
  0.3343450317752641  0.1673403057783602  0.6678232928884285
  0.3335244074039565  0.4167656410452167  0.9994991876624013
  0.3323158652734008  0.4161640675328897  0.3330257902741920
  0.3337839767001256  0.4169319965209226  0.6680156448682126
  0.3333715090396083  0.6665493928338009  0.9996618890153215
  0.3326226850039760  0.6671274413713562  0.3325081528363327
  0.3343422154266875  0.6670772771405282  0.6678272726423771
  0.3333268727208107  0.9166731272791893  0.9999971726952239
  0.3333272861682133  0.9166727138317796  0.3325835094603065
  0.3332983751185736  0.9167016248814264  0.6671816414143237
  0.5834477561219700  0.1668303225634489  0.9996562680815373
  0.5828766956157452  0.1655075715983116  0.3325096205841405
  0.5829574705726301  0.1672942839733906  0.6678223660963383
  0.5833265269901773  0.4166308849240821  0.0008671794022632
  0.5818995169744525  0.4137833430692126  0.3297944213694777
  0.5903579513391719  0.4305607925380954  0.6630938577979819
  0.5833125465448816  0.6666874534551184  0.0008670297364262
  0.5818799752156565  0.6681200247843435  0.3297993256089526
  0.5902497050976407  0.6597502949023593  0.6631115610494405
  0.5834506071661991  0.9166284909603988  0.9996618890153215
  0.5828725586286438  0.9173773149960240  0.3325081528363327
  0.5829227228594718  0.9156577845733125  0.6678272726423771
  0.8334126239590560  0.1667018088959367  0.9999688600872858
  0.8333805879515097  0.1666871555128822  0.3329971035396397
  0.8330824720757732  0.1665069609165997  0.6670342396251456
  0.8332394418767066  0.4167605581232934  0.9995158755922589
  0.8338502106601311  0.4161497893398689  0.3330259545848477
  0.8331771007996736  0.4168228992003264  0.6680409204705668
  0.8333691150759179  0.6666734730098227  0.0008671794022632
  0.8362166569307945  0.6681004830255475  0.3297944213694777
  0.8194392074619046  0.6596420486608281  0.6630938577979819
  0.8332343589547833  0.9164755925960435  0.9994991876624013
  0.8338359324671103  0.9176841347265992  0.3330257902741920
  0.8330680034790774  0.9162160232998744  0.6680156448682126
  0.1665366763967100  0.0834633156032893  0.2934176708976821
  0.1669936902721503  0.0830063017278491  0.6272495435420780
  0.1666342531635010  0.0833657388364983  0.9606374807310303
  0.1666429707384580  0.3333151821431244  0.2938046528992544
  0.1673971863475927  0.3336928560890726  0.6269634252632414
  0.1667801023816367  0.3333819626859835  0.9606487849002008
  0.1665307637223847  0.5830639839614449  0.2934210653677596
  0.1670218370493615  0.5840100647839179  0.6272436857190158
  0.1666288832800475  0.5832512088547972  0.9606496687215440
  0.1666141750169459  0.8333076186110873  0.2934021751491898
  0.1665074485916520  0.8332694974551487  0.6270152709076342
  0.1666623458560039  0.8333272427547982  0.9607574735985693
  0.4166923813889127  0.0833858169830535  0.2934021751491898
  0.4167305025448584  0.0834925434083473  0.6270152709076342
  0.4166727572452018  0.0833376461439954  0.9607574735985693
  0.4163843797604159  0.3332039039630885  0.2943425085117752
  0.4191152689700033  0.3350793513942705  0.6277303932167513
  0.4174620768806818  0.3337862424164442  0.9601517969456950
  0.4163689750548016  0.5831684984612835  0.2943354209025273
  0.4190473147067024  0.5841029555036101  0.6277348713051651
  0.4174486181624388  0.5836775092185960  0.9601643390217731
  0.4166872321197417  0.8333127678802583  0.2934014025834273
  0.4167019865239610  0.8332980134760390  0.6270208640891397
  0.4166657961521452  0.8333342038478548  0.9607678611761941
  0.6669360160385551  0.0834692282776146  0.2934210653677596
  0.6659899352160821  0.0829781549506379  0.6272436857190158
  0.6667487911452028  0.0833711087199518  0.9606496687215440
  0.6668362721946437  0.3332014057152861  0.2943431951534947
  0.6660291174711332  0.3349728820512112  0.6277331590051105
  0.6663463565591670  0.3337688775823011  0.9601629935221254
  0.6666640484379300  0.5833359515620700  0.2981955083421113
  0.6666692087471660  0.5833307912528340  0.9611202879009824
  0.6668315015387165  0.8336310249451984  0.2943354209025273
  0.6658970444963899  0.8309526852932976  0.6277348713051651
  0.6663224907814040  0.8325513818375612  0.9601643390217731
  0.9166848178568756  0.0833570212615413  0.2938046528992544
  0.9163071439109274  0.0826028056524066  0.6269634252632414
  0.9166180373140165  0.0832198896183627  0.9606487849002008
  0.9166908441262223  0.3333091558737706  0.2938053204375564
  0.9163702704530650  0.3336297295469350  0.6269750680063595
  0.9166245287607779  0.3333754712392221  0.9606598452749111
  0.9167985942847139  0.5831637278053563  0.2943431951534947
  0.9150271179487888  0.5839708825288668  0.6277331590051105
  0.9162311224176989  0.5836536434408330  0.9601629935221254
  0.9167960960369115  0.8336156202395841  0.2943425085117752
  0.9149206486057295  0.8308847310299967  0.6277303932167513
  0.9162137575835558  0.8325379231193182  0.9601517969456950
  0.0832994810599601  0.1667005109400392  0.1272430786889416
  0.0835077962735511  0.1664921957264482  0.4603436931634803
  0.0833021338206947  0.1666978581793046  0.7937449123414595
  0.0833008818121570  0.4166000018721476  0.1272482016205814
  0.0835405797978055  0.4170600785641199  0.4603422876376229
  0.0833203403174920  0.4166123998504716  0.7937526372988657
  0.0832132340709748  0.6665982010745211  0.1270908230509349
  0.0837671870137626  0.6672028111327535  0.4598870459069246
  0.0830814137989790  0.6666388481431298  0.7942684328429834
  0.0832087307075327  0.9166194411317292  0.1270879311003625
  0.0837454862508196  0.9165905154159830  0.4598886718636379
  0.0830556353085043  0.9164378778544702  0.7942625154389802
  0.3333805588682708  0.1667912612924667  0.1270879311003625
  0.3334094845840241  0.1662545057491798  0.4598886718636379
  0.3335621221455369  0.1669443566914950  0.7942625154389802
  0.3333131345703464  0.4166601492644659  0.1271538189860877
  0.3345633621543769  0.4173009763591438  0.4605611500526123
  0.3335393287498007  0.4167858682004919  0.7942988969381517
  0.3333713437096790  0.6666056228211801  0.1270923142007661
  0.3334271469532553  0.6672082347184443  0.4598820975913540
  0.3335469483224642  0.6666624260761580  0.7942757591169212
  0.3333247633799701  0.9166752366200299  0.1272010462054141
  0.3333187320709854  0.9166812679290146  0.4597934007890743
  0.3333136450604499  0.9166863549395501  0.7939108357924454
  0.5834017989254789  0.1667867579290245  0.1270908230509349
  0.5827971888672465  0.1662328049862367  0.4598870459069246
  0.5833611518568702  0.1669185782010203  0.7942684328429834
  0.5835262810419906  0.4170438800328711  0.1288522542425028
  0.5840420122343772  0.4180189272529446  0.4627638613460832
  0.5843366883813346  0.4185883374943984  0.7904697286954914
  0.5835121689844840  0.6664878310155160  0.1288514082561107
  0.5839964011345131  0.6660035988654869  0.4627670059623412
  0.5842669799518205  0.6657330200481795  0.7904812157108125
  0.5833943771788199  0.9166286562903210  0.1270923142007661
  0.5827917652815557  0.9165728530467447  0.4598820975913540
  0.5833375739238420  0.9164530516775358  0.7942757591169212
  0.8333999981278524  0.1666991101878423  0.1272482016205814
  0.8329399214358801  0.1664594122021938  0.4603422876376229
  0.8333876001495284  0.1666796516825073  0.7937526372988657
  0.8333464389412768  0.4166535610587232  0.1271628342916955
  0.8327581767903638  0.4172418232096362  0.4605600673367931
  0.8332627145842153  0.4167372854157847  0.7943128045672196
  0.8329561199671289  0.6664737189580094  0.1288522542425028
  0.8319810727470554  0.6659579877656228  0.4627638613460832
  0.8314116625056016  0.6656633116186654  0.7904697286954914
  0.8333398507355341  0.9166868654296536  0.1271538189860877
  0.8326990236408562  0.9154366378456231  0.4605611500526123
  0.8332141317995081  0.9164606712501993  0.7942988969381517
  0.6666564605346963  0.5833435394653037  0.5047887317390192
 
  0.00000000E+00  0.00000000E+00  0.00000000E+00
  0.00000000E+00  0.00000000E+00  0.00000000E+00
  0.00000000E+00  0.00000000E+00  0.00000000E+00
  0.00000000E+00  0.00000000E+00  0.00000000E+00
  0.00000000E+00  0.00000000E+00  0.00000000E+00
  0.00000000E+00  0.00000000E+00  0.00000000E+00
  0.00000000E+00  0.00000000E+00  0.00000000E+00
  0.00000000E+00  0.00000000E+00  0.00000000E+00
  0.00000000E+00  0.00000000E+00  0.00000000E+00
  0.00000000E+00  0.00000000E+00  0.00000000E+00
  0.00000000E+00  0.00000000E+00  0.00000000E+00
  0.00000000E+00  0.00000000E+00  0.00000000E+00
  0.00000000E+00  0.00000000E+00  0.00000000E+00
  0.00000000E+00  0.00000000E+00  0.00000000E+00
  0.00000000E+00  0.00000000E+00  0.00000000E+00
  0.00000000E+00  0.00000000E+00  0.00000000E+00
  0.00000000E+00  0.00000000E+00  0.00000000E+00
  0.00000000E+00  0.00000000E+00  0.00000000E+00
  0.00000000E+00  0.00000000E+00  0.00000000E+00
  0.00000000E+00  0.00000000E+00  0.00000000E+00
  0.00000000E+00  0.00000000E+00  0.00000000E+00
  0.00000000E+00  0.00000000E+00  0.00000000E+00
  0.00000000E+00  0.00000000E+00  0.00000000E+00
  0.00000000E+00  0.00000000E+00  0.00000000E+00
  0.00000000E+00  0.00000000E+00  0.00000000E+00
  0.00000000E+00  0.00000000E+00  0.00000000E+00
  0.00000000E+00  0.00000000E+00  0.00000000E+00
  0.00000000E+00  0.00000000E+00  0.00000000E+00
  0.00000000E+00  0.00000000E+00  0.00000000E+00
  0.00000000E+00  0.00000000E+00  0.00000000E+00
  0.00000000E+00  0.00000000E+00  0.00000000E+00
  0.00000000E+00  0.00000000E+00  0.00000000E+00
  0.00000000E+00  0.00000000E+00  0.00000000E+00
  0.00000000E+00  0.00000000E+00  0.00000000E+00
  0.00000000E+00  0.00000000E+00  0.00000000E+00
  0.00000000E+00  0.00000000E+00  0.00000000E+00
  0.00000000E+00  0.00000000E+00  0.00000000E+00
  0.00000000E+00  0.00000000E+00  0.00000000E+00
  0.00000000E+00  0.00000000E+00  0.00000000E+00
  0.00000000E+00  0.00000000E+00  0.00000000E+00
  0.00000000E+00  0.00000000E+00  0.00000000E+00
  0.00000000E+00  0.00000000E+00  0.00000000E+00
  0.00000000E+00  0.00000000E+00  0.00000000E+00
  0.00000000E+00  0.00000000E+00  0.00000000E+00
  0.00000000E+00  0.00000000E+00  0.00000000E+00
  0.00000000E+00  0.00000000E+00  0.00000000E+00
  0.00000000E+00  0.00000000E+00  0.00000000E+00
  0.00000000E+00  0.00000000E+00  0.00000000E+00
  0.00000000E+00  0.00000000E+00  0.00000000E+00
  0.00000000E+00  0.00000000E+00  0.00000000E+00
  0.00000000E+00  0.00000000E+00  0.00000000E+00
  0.00000000E+00  0.00000000E+00  0.00000000E+00
  0.00000000E+00  0.00000000E+00  0.00000000E+00
  0.00000000E+00  0.00000000E+00  0.00000000E+00
  0.00000000E+00  0.00000000E+00  0.00000000E+00
  0.00000000E+00  0.00000000E+00  0.00000000E+00
  0.00000000E+00  0.00000000E+00  0.00000000E+00
  0.00000000E+00  0.00000000E+00  0.00000000E+00
  0.00000000E+00  0.00000000E+00  0.00000000E+00
  0.00000000E+00  0.00000000E+00  0.00000000E+00
  0.00000000E+00  0.00000000E+00  0.00000000E+00
  0.00000000E+00  0.00000000E+00  0.00000000E+00
  0.00000000E+00  0.00000000E+00  0.00000000E+00
  0.00000000E+00  0.00000000E+00  0.00000000E+00
  0.00000000E+00  0.00000000E+00  0.00000000E+00
  0.00000000E+00  0.00000000E+00  0.00000000E+00
  0.00000000E+00  0.00000000E+00  0.00000000E+00
  0.00000000E+00  0.00000000E+00  0.00000000E+00
  0.00000000E+00  0.00000000E+00  0.00000000E+00
  0.00000000E+00  0.00000000E+00  0.00000000E+00
  0.00000000E+00  0.00000000E+00  0.00000000E+00
  0.00000000E+00  0.00000000E+00  0.00000000E+00
  0.00000000E+00  0.00000000E+00  0.00000000E+00
  0.00000000E+00  0.00000000E+00  0.00000000E+00
  0.00000000E+00  0.00000000E+00  0.00000000E+00
  0.00000000E+00  0.00000000E+00  0.00000000E+00
  0.00000000E+00  0.00000000E+00  0.00000000E+00
  0.00000000E+00  0.00000000E+00  0.00000000E+00
  0.00000000E+00  0.00000000E+00  0.00000000E+00
  0.00000000E+00  0.00000000E+00  0.00000000E+00
  0.00000000E+00  0.00000000E+00  0.00000000E+00
  0.00000000E+00  0.00000000E+00  0.00000000E+00
  0.00000000E+00  0.00000000E+00  0.00000000E+00
  0.00000000E+00  0.00000000E+00  0.00000000E+00
  0.00000000E+00  0.00000000E+00  0.00000000E+00
  0.00000000E+00  0.00000000E+00  0.00000000E+00
  0.00000000E+00  0.00000000E+00  0.00000000E+00
  0.00000000E+00  0.00000000E+00  0.00000000E+00
  0.00000000E+00  0.00000000E+00  0.00000000E+00
  0.00000000E+00  0.00000000E+00  0.00000000E+00
  0.00000000E+00  0.00000000E+00  0.00000000E+00
  0.00000000E+00  0.00000000E+00  0.00000000E+00
  0.00000000E+00  0.00000000E+00  0.00000000E+00
  0.00000000E+00  0.00000000E+00  0.00000000E+00
  0.00000000E+00  0.00000000E+00  0.00000000E+00
  0.00000000E+00  0.00000000E+00  0.00000000E+00
  0.00000000E+00  0.00000000E+00  0.00000000E+00
  0.00000000E+00  0.00000000E+00  0.00000000E+00
  0.00000000E+00  0.00000000E+00  0.00000000E+00
  0.00000000E+00  0.00000000E+00  0.00000000E+00
  0.00000000E+00  0.00000000E+00  0.00000000E+00
  0.00000000E+00  0.00000000E+00  0.00000000E+00
  0.00000000E+00  0.00000000E+00  0.00000000E+00
  0.00000000E+00  0.00000000E+00  0.00000000E+00
  0.00000000E+00  0.00000000E+00  0.00000000E+00
  0.00000000E+00  0.00000000E+00  0.00000000E+00
  0.00000000E+00  0.00000000E+00  0.00000000E+00
  0.00000000E+00  0.00000000E+00  0.00000000E+00
  0.00000000E+00  0.00000000E+00  0.00000000E+00
  0.00000000E+00  0.00000000E+00  0.00000000E+00
  0.00000000E+00  0.00000000E+00  0.00000000E+00
  0.00000000E+00  0.00000000E+00  0.00000000E+00
  0.00000000E+00  0.00000000E+00  0.00000000E+00
  0.00000000E+00  0.00000000E+00  0.00000000E+00
  0.00000000E+00  0.00000000E+00  0.00000000E+00
  0.00000000E+00  0.00000000E+00  0.00000000E+00
  0.00000000E+00  0.00000000E+00  0.00000000E+00
  0.00000000E+00  0.00000000E+00  0.00000000E+00
  0.00000000E+00  0.00000000E+00  0.00000000E+00
  0.00000000E+00  0.00000000E+00  0.00000000E+00
  0.00000000E+00  0.00000000E+00  0.00000000E+00
  0.00000000E+00  0.00000000E+00  0.00000000E+00
  0.00000000E+00  0.00000000E+00  0.00000000E+00
  0.00000000E+00  0.00000000E+00  0.00000000E+00
  0.00000000E+00  0.00000000E+00  0.00000000E+00
  0.00000000E+00  0.00000000E+00  0.00000000E+00
  0.00000000E+00  0.00000000E+00  0.00000000E+00
  0.00000000E+00  0.00000000E+00  0.00000000E+00
  0.00000000E+00  0.00000000E+00  0.00000000E+00
  0.00000000E+00  0.00000000E+00  0.00000000E+00
  0.00000000E+00  0.00000000E+00  0.00000000E+00
  0.00000000E+00  0.00000000E+00  0.00000000E+00
  0.00000000E+00  0.00000000E+00  0.00000000E+00
  0.00000000E+00  0.00000000E+00  0.00000000E+00
  0.00000000E+00  0.00000000E+00  0.00000000E+00
  0.00000000E+00  0.00000000E+00  0.00000000E+00
  0.00000000E+00  0.00000000E+00  0.00000000E+00
  0.00000000E+00  0.00000000E+00  0.00000000E+00
  0.00000000E+00  0.00000000E+00  0.00000000E+00
  0.00000000E+00  0.00000000E+00  0.00000000E+00
  0.00000000E+00  0.00000000E+00  0.00000000E+00
  0.00000000E+00  0.00000000E+00  0.00000000E+00
  0.00000000E+00  0.00000000E+00  0.00000000E+00
  0.00000000E+00  0.00000000E+00  0.00000000E+00
  0.00000000E+00  0.00000000E+00  0.00000000E+00
  0.00000000E+00  0.00000000E+00  0.00000000E+00
  0.00000000E+00  0.00000000E+00  0.00000000E+00
  0.00000000E+00  0.00000000E+00  0.00000000E+00
  0.00000000E+00  0.00000000E+00  0.00000000E+00
  0.00000000E+00  0.00000000E+00  0.00000000E+00
  0.00000000E+00  0.00000000E+00  0.00000000E+00
  0.00000000E+00  0.00000000E+00  0.00000000E+00
  0.00000000E+00  0.00000000E+00  0.00000000E+00
  0.00000000E+00  0.00000000E+00  0.00000000E+00
  0.00000000E+00  0.00000000E+00  0.00000000E+00
  0.00000000E+00  0.00000000E+00  0.00000000E+00
  0.00000000E+00  0.00000000E+00  0.00000000E+00
  0.00000000E+00  0.00000000E+00  0.00000000E+00
  0.00000000E+00  0.00000000E+00  0.00000000E+00
  0.00000000E+00  0.00000000E+00  0.00000000E+00
  0.00000000E+00  0.00000000E+00  0.00000000E+00
  0.00000000E+00  0.00000000E+00  0.00000000E+00
  0.00000000E+00  0.00000000E+00  0.00000000E+00
  0.00000000E+00  0.00000000E+00  0.00000000E+00
  0.00000000E+00  0.00000000E+00  0.00000000E+00
  0.00000000E+00  0.00000000E+00  0.00000000E+00
  0.00000000E+00  0.00000000E+00  0.00000000E+00
  0.00000000E+00  0.00000000E+00  0.00000000E+00
  0.00000000E+00  0.00000000E+00  0.00000000E+00
  0.00000000E+00  0.00000000E+00  0.00000000E+00
  0.00000000E+00  0.00000000E+00  0.00000000E+00
  0.00000000E+00  0.00000000E+00  0.00000000E+00
  0.00000000E+00  0.00000000E+00  0.00000000E+00
  0.00000000E+00  0.00000000E+00  0.00000000E+00
  0.00000000E+00  0.00000000E+00  0.00000000E+00
  0.00000000E+00  0.00000000E+00  0.00000000E+00
  0.00000000E+00  0.00000000E+00  0.00000000E+00
  0.00000000E+00  0.00000000E+00  0.00000000E+00
  0.00000000E+00  0.00000000E+00  0.00000000E+00
  0.00000000E+00  0.00000000E+00  0.00000000E+00
  0.00000000E+00  0.00000000E+00  0.00000000E+00
  0.00000000E+00  0.00000000E+00  0.00000000E+00
  0.00000000E+00  0.00000000E+00  0.00000000E+00
  0.00000000E+00  0.00000000E+00  0.00000000E+00
  0.00000000E+00  0.00000000E+00  0.00000000E+00
  0.00000000E+00  0.00000000E+00  0.00000000E+00
  0.00000000E+00  0.00000000E+00  0.00000000E+00
  0.00000000E+00  0.00000000E+00  0.00000000E+00
  0.00000000E+00  0.00000000E+00  0.00000000E+00
  0.00000000E+00  0.00000000E+00  0.00000000E+00
  0.00000000E+00  0.00000000E+00  0.00000000E+00
