  Zn2 O2                                
   1.00000000000000     
    12.9943542480000005    0.0000000000000000    0.0000000000000000
    -6.4971766471999999   11.2534400587000007    0.0000000000000000
     0.0000000000000000    0.0000000000000000   15.6120386123999992
   Zn   O    Mo
    95    95     1
Direct
  0.1665818573735724  0.0834181506264282  0.1653599885001828
  0.1667682317112860  0.0832317762887147  0.4998370910474365
  0.1665277519923837  0.0834722560076169  0.8337253297401254
  0.1660359771015538  0.3330179955507739  0.1655042251693005
  0.1646648830811203  0.3323324485405643  0.4996513958654640
  0.1663572122843688  0.3331786131421849  0.8337310976188089
  0.1665818573735724  0.5831636837471459  0.1653599885001828
  0.1667682317112860  0.5835364324225800  0.4998370910474365
  0.1665277519923837  0.5830554729847616  0.8337253297401254
  0.1669954689902311  0.8334977114951173  0.1653224832855225
  0.1681012560361553  0.8340506050180686  0.5003834507279152
  0.1668329220052052  0.8334164380026008  0.8338523818087282
  0.4165022885048828  0.0830045390097695  0.1653224832855225
  0.4159493949819242  0.0818987519638453  0.5003834507279152
  0.4165835619973992  0.0831670859947954  0.8338523818087282
  0.4150362799317829  0.3323249844204648  0.1655457279921594
  0.4045237029745756  0.3258245627578755  0.5028930921493353
  0.4174406128156267  0.3337160911066834  0.8336784154677268
  0.4150362799317829  0.5827112645113121  0.1655457279921594
  0.4045237029745756  0.5786991092166940  0.5028930921493353
  0.4174406128156267  0.5837244907089373  0.8336784154677268
  0.4165022885048828  0.8334977114951173  0.1653224832855225
  0.4159493949819242  0.8340506050180686  0.5003834507279152
  0.4165835619973992  0.8334164380026008  0.8338523818087282
  0.6668363162528541  0.0834181506264282  0.1653599885001828
  0.6664635675774200  0.0832317762887147  0.4998370910474365
  0.6669445270152384  0.0834722560076169  0.8337253297401254
  0.6672887354886879  0.3323249844204648  0.1655457279921594
  0.6713008907833060  0.3258245627578755  0.5028930921493353
  0.6662755092910627  0.3337160911066834  0.8336784154677268
  0.6666666870000029  0.5833333129999971  0.1660728622832079
  0.6666666870000029  0.5833333129999971  0.8344504517847933
  0.6672887354886879  0.8349637200682168  0.1655457279921594
  0.6713008907833060  0.8454762970254243  0.5028930921493353
  0.6662755092910627  0.8325593871843734  0.8336784154677268
  0.9169820344492214  0.0839640308984469  0.1655042251693005
  0.9176675814594382  0.0853351249188803  0.4996513958654640
  0.9168214168578174  0.0836427957156319  0.8337310976188089
  0.9169820344492214  0.3330179955507739  0.1655042251693005
  0.9176675814594382  0.3323324485405643  0.4996513958654640
  0.9168214168578174  0.3331786131421849  0.8337310976188089
  0.9176750455795377  0.5827112645113121  0.1655457279921594
  0.9241754672421272  0.5786991092166940  0.5028930921493353
  0.9162839388933192  0.5837244907089373  0.8336784154677268
  0.9176750455795377  0.8349637200682168  0.1655457279921594
  0.9241754672421272  0.8454762970254243  0.5028930921493353
  0.9162839388933192  0.8325593871843734  0.8336784154677268
  0.0833264632481006  0.1666735447519000  0.9996887015364920
  0.0832830930233134  0.1667169149766873  0.3320369154005514
  0.0832936596712850  0.1667063483287157  0.6669177745032479
  0.0833264632481006  0.4166529414962061  0.9996887015364920
  0.0832830930233134  0.4165662010466316  0.3320369154005514
  0.0832936596712850  0.4165873343425534  0.6669177745032479
  0.0833070495806866  0.6666441574696769  0.9995945585998105
  0.0851630637417845  0.6675267794357721  0.3315989526547782
  0.0840400601825576  0.6673116766600954  0.6680396375670367
  0.0833070495806866  0.9166629301110131  0.9995945585998105
  0.0851630637417845  0.9176363223060084  0.3315989526547782
  0.0840400601825576  0.9167284215224653  0.6680396375670367
  0.3333370998889895  0.1666929584193141  0.9995945585998105
  0.3323637076939869  0.1648369442582162  0.3315989526547782
  0.3332716084775371  0.1659599478174430  0.6680396375670367
  0.3333437767220544  0.4166719038610301  0.9995952833676472
  0.3314252602015322  0.4157126456007655  0.3318594358064070
  0.3326521389109134  0.4163260849554563  0.6687612101142877
  0.3333370998889895  0.6666441574696769  0.9995945585998105
  0.3323637076939869  0.6675267794357721  0.3315989526547782
  0.3332716084775371  0.6673116766600954  0.6680396375670367
  0.3333333429999996  0.9166666870000029  0.9996400556904492
  0.3333333429999996  0.9166666870000029  0.3319885445271238
  0.3333333429999996  0.9166666870000029  0.6671622123541607
  0.5833558425303231  0.1666929584193141  0.9995945585998105
  0.5824732205642279  0.1648369442582162  0.3315989526547782
  0.5826883233399046  0.1659599478174430  0.6680396375670367
  0.5833136890668247  0.4166274391336575  0.0010787589881786
  0.5818519693345479  0.4137039996691044  0.3245935944616385
  0.5866048986642538  0.4232098583285230  0.6662830137425979
  0.5833136890668247  0.6666863109331753  0.0010787589881786
  0.5818519693345479  0.6681480306654521  0.3245935944616385
  0.5866048986642538  0.6633951013357462  0.6662830137425979
  0.5833558425303231  0.9166629301110131  0.9995945585998105
  0.5824732205642279  0.9176363223060084  0.3315989526547782
  0.5826883233399046  0.9167284215224653  0.6680396375670367
  0.8333470585037939  0.1666735447519000  0.9996887015364920
  0.8334337989533684  0.1667169149766873  0.3320369154005514
  0.8334126656574464  0.1667063483287157  0.6669177745032479
  0.8333280961389699  0.4166719038610301  0.9995952833676472
  0.8342873543992344  0.4157126456007655  0.3318594358064070
  0.8336739150445439  0.4163260849554563  0.6687612101142877
  0.8333725608663426  0.6666863109331753  0.0010787589881786
  0.8362960003308956  0.6681480306654521  0.3245935944616385
  0.8267901416714769  0.6633951013357462  0.6662830137425979
  0.8333280961389699  0.9166562532779483  0.9995952833676472
  0.8342873543992344  0.9185747697984705  0.3318594358064070
  0.8336739150445439  0.9173478910890889  0.6687612101142877
  0.1665373293769301  0.0834626786230706  0.2931646965397530
  0.1668216961536602  0.0831783118463405  0.6262571973127323
  0.1666675865820500  0.0833324214179507  0.9605081635714313
  0.1665082105511671  0.3332541122755842  0.2933318946855826
  0.1674488304753916  0.3337244222376928  0.6260507414228649
  0.1668284722526634  0.3334142431263287  0.9605150779877742
  0.1665373293769301  0.5830746277538682  0.2931646965397530
  0.1668216961536602  0.5836433613073142  0.6262571973127323
  0.1666675865820500  0.5833351421641081  0.9605081635714313
  0.1666611749305012  0.8333305644652523  0.2930604483605372
  0.1663648980476068  0.8331824260238050  0.6266188731172376
  0.1665811853107512  0.8332905696553736  0.9605757493502628
  0.4166694355347477  0.0833388330694995  0.2930604483605372
  0.4168175739761950  0.0836351099523939  0.6266188731172376
  0.4167094303446263  0.0834188226892494  0.9605757493502628
  0.4163146327680094  0.3332508371406378  0.2947380223276397
  0.4187867765420356  0.3349957456821281  0.6267797768647266
  0.4174548324085773  0.3338247080556815  0.9606948764326725
  0.4163146327680094  0.5830637646273655  0.2947380223276397
  0.4187867765420356  0.5837909998599013  0.6267797768647266
  0.4174548324085773  0.5836300933528896  0.9606948764326725
  0.4166694355347477  0.8333305644652523  0.2930604483605372
  0.4168175739761950  0.8331824260238050  0.6266188731172376
  0.4167094303446263  0.8332905696553736  0.9605757493502628
  0.6669253722461318  0.0834626786230706  0.2931646965397530
  0.6663566386926858  0.0831783118463405  0.6262571973127323
  0.6666648578358919  0.0833324214179507  0.9605081635714313
  0.6669362353726345  0.3332508371406378  0.2947380223276397
  0.6662090001400987  0.3349957456821281  0.6267797768647266
  0.6663699066471104  0.3338247080556815  0.9606948764326725
  0.6666666870000029  0.5833333129999971  0.2973867839400550
  0.6666666870000029  0.5833333129999971  0.9613930921206408
  0.6669362353726345  0.8336853672319905  0.2947380223276397
  0.6662090001400987  0.8312132234579644  0.6267797768647266
  0.6663699066471104  0.8325451675914227  0.9606948764326725
  0.9167459177244184  0.0834917974488336  0.2933318946855826
  0.9162756077623097  0.0825511775246090  0.6260507414228649
  0.9165857868736739  0.0831715357473373  0.9605150779877742
  0.9167459177244184  0.3332541122755842  0.2933318946855826
  0.9162756077623097  0.3337244222376928  0.6260507414228649
  0.9165857868736739  0.3334142431263287  0.9605150779877742
  0.9167491928593645  0.5830637646273655  0.2947380223276397
  0.9150042843178744  0.5837909998599013  0.6267797768647266
  0.9161753219443209  0.5836300933528896  0.9606948764326725
  0.9167491928593645  0.8336853672319905  0.2947380223276397
  0.9150042843178744  0.8312132234579644  0.6267797768647266
  0.9161753219443209  0.8325451675914227  0.9606948764326725
  0.0833477710905808  0.1666522369094198  0.1269630947932216
  0.0837048915272067  0.1662951164727940  0.4596242777911495
  0.0833060640645275  0.1666939439354732  0.7932801804588411
  0.0833477710905808  0.4166955571811594  0.1269630947932216
  0.0837048915272067  0.4174097980544181  0.4596242777911495
  0.0833060640645275  0.4166121431290526  0.7932801804588411
  0.0832246744935537  0.6666190825567923  0.1271344038282622
  0.0836008778173723  0.6675623059489949  0.4592492727526268
  0.0829740993214135  0.6665013156309981  0.7938947171767088
  0.0832246744935537  0.9166056299367649  0.1271344038282622
  0.0836008778173723  0.9160386098683877  0.4592492727526268
  0.0829740993214135  0.9164728216904184  0.7938947171767088
  0.3333944000632376  0.1667753335064469  0.1271344038282622
  0.3339614201316148  0.1663991301826283  0.4592492727526268
  0.3335272083095840  0.1670259086785871  0.7938947171767088
  0.3333447116133932  0.4166723713066961  0.1274171585622175
  0.3343891655003665  0.4171945982501828  0.4596759144516138
  0.3335528509867982  0.4167764409934021  0.7942360341422668
  0.3333944000632376  0.6666190825567923  0.1271344038282622
  0.3339614201316148  0.6675623059489949  0.4592492727526268
  0.3335272083095840  0.6665013156309981  0.7938947171767088
  0.3333333429999996  0.9166666870000029  0.1268827627830798
  0.3333333429999996  0.9166666870000029  0.4593721687471120
  0.3333333429999996  0.9166666870000029  0.7935220226522989
  0.5833809174432077  0.1667753335064469  0.1271344038282622
  0.5824376940510051  0.1663991301826283  0.4592492727526268
  0.5834986843690019  0.1670259086785871  0.7938947171767088
  0.5834085012351435  0.4168170634702957  0.1297142611278458
  0.5874368783439191  0.4248738176878612  0.4643516038118197
  0.5838247639337711  0.4176495888675366  0.7918775626993135
  0.5834085012351435  0.6665914987648565  0.1297142611278458
  0.5874368783439191  0.6625631216560809  0.4643516038118197
  0.5838247639337711  0.6661752360662289  0.7918775626993135
  0.5833809174432077  0.9166056299367649  0.1271344038282622
  0.5824376940510051  0.9160386098683877  0.4592492727526268
  0.5834986843690019  0.9164728216904184  0.7938947171767088
  0.8333044428188405  0.1666522369094198  0.1269630947932216
  0.8325902019455819  0.1662951164727940  0.4596242777911495
  0.8333878568709473  0.1666939439354732  0.7932801804588411
  0.8333276286933040  0.4166723713066961  0.1274171585622175
  0.8328054017498173  0.4171945982501828  0.4596759144516138
  0.8332235590065977  0.4167764409934021  0.7942360341422668
  0.8331829365297045  0.6665914987648565  0.1297142611278458
  0.8251261823121389  0.6625631216560809  0.4643516038118197
  0.8323504111324632  0.6661752360662289  0.7918775626993135
  0.8333276286933040  0.9166553183866093  0.1274171585622175
  0.8328054017498173  0.9156108644996359  0.4596759144516138
  0.8332235590065977  0.9164471790132044  0.7942360341422668
  0.6666666870000029  0.5833333129999971  0.4962127946230233
 
  0.00000000E+00  0.00000000E+00  0.00000000E+00
  0.00000000E+00  0.00000000E+00  0.00000000E+00
  0.00000000E+00  0.00000000E+00  0.00000000E+00
  0.00000000E+00  0.00000000E+00  0.00000000E+00
  0.00000000E+00  0.00000000E+00  0.00000000E+00
  0.00000000E+00  0.00000000E+00  0.00000000E+00
  0.00000000E+00  0.00000000E+00  0.00000000E+00
  0.00000000E+00  0.00000000E+00  0.00000000E+00
  0.00000000E+00  0.00000000E+00  0.00000000E+00
  0.00000000E+00  0.00000000E+00  0.00000000E+00
  0.00000000E+00  0.00000000E+00  0.00000000E+00
  0.00000000E+00  0.00000000E+00  0.00000000E+00
  0.00000000E+00  0.00000000E+00  0.00000000E+00
  0.00000000E+00  0.00000000E+00  0.00000000E+00
  0.00000000E+00  0.00000000E+00  0.00000000E+00
  0.00000000E+00  0.00000000E+00  0.00000000E+00
  0.00000000E+00  0.00000000E+00  0.00000000E+00
  0.00000000E+00  0.00000000E+00  0.00000000E+00
  0.00000000E+00  0.00000000E+00  0.00000000E+00
  0.00000000E+00  0.00000000E+00  0.00000000E+00
  0.00000000E+00  0.00000000E+00  0.00000000E+00
  0.00000000E+00  0.00000000E+00  0.00000000E+00
  0.00000000E+00  0.00000000E+00  0.00000000E+00
  0.00000000E+00  0.00000000E+00  0.00000000E+00
  0.00000000E+00  0.00000000E+00  0.00000000E+00
  0.00000000E+00  0.00000000E+00  0.00000000E+00
  0.00000000E+00  0.00000000E+00  0.00000000E+00
  0.00000000E+00  0.00000000E+00  0.00000000E+00
  0.00000000E+00  0.00000000E+00  0.00000000E+00
  0.00000000E+00  0.00000000E+00  0.00000000E+00
  0.00000000E+00  0.00000000E+00  0.00000000E+00
  0.00000000E+00  0.00000000E+00  0.00000000E+00
  0.00000000E+00  0.00000000E+00  0.00000000E+00
  0.00000000E+00  0.00000000E+00  0.00000000E+00
  0.00000000E+00  0.00000000E+00  0.00000000E+00
  0.00000000E+00  0.00000000E+00  0.00000000E+00
  0.00000000E+00  0.00000000E+00  0.00000000E+00
  0.00000000E+00  0.00000000E+00  0.00000000E+00
  0.00000000E+00  0.00000000E+00  0.00000000E+00
  0.00000000E+00  0.00000000E+00  0.00000000E+00
  0.00000000E+00  0.00000000E+00  0.00000000E+00
  0.00000000E+00  0.00000000E+00  0.00000000E+00
  0.00000000E+00  0.00000000E+00  0.00000000E+00
  0.00000000E+00  0.00000000E+00  0.00000000E+00
  0.00000000E+00  0.00000000E+00  0.00000000E+00
  0.00000000E+00  0.00000000E+00  0.00000000E+00
  0.00000000E+00  0.00000000E+00  0.00000000E+00
  0.00000000E+00  0.00000000E+00  0.00000000E+00
  0.00000000E+00  0.00000000E+00  0.00000000E+00
  0.00000000E+00  0.00000000E+00  0.00000000E+00
  0.00000000E+00  0.00000000E+00  0.00000000E+00
  0.00000000E+00  0.00000000E+00  0.00000000E+00
  0.00000000E+00  0.00000000E+00  0.00000000E+00
  0.00000000E+00  0.00000000E+00  0.00000000E+00
  0.00000000E+00  0.00000000E+00  0.00000000E+00
  0.00000000E+00  0.00000000E+00  0.00000000E+00
  0.00000000E+00  0.00000000E+00  0.00000000E+00
  0.00000000E+00  0.00000000E+00  0.00000000E+00
  0.00000000E+00  0.00000000E+00  0.00000000E+00
  0.00000000E+00  0.00000000E+00  0.00000000E+00
  0.00000000E+00  0.00000000E+00  0.00000000E+00
  0.00000000E+00  0.00000000E+00  0.00000000E+00
  0.00000000E+00  0.00000000E+00  0.00000000E+00
  0.00000000E+00  0.00000000E+00  0.00000000E+00
  0.00000000E+00  0.00000000E+00  0.00000000E+00
  0.00000000E+00  0.00000000E+00  0.00000000E+00
  0.00000000E+00  0.00000000E+00  0.00000000E+00
  0.00000000E+00  0.00000000E+00  0.00000000E+00
  0.00000000E+00  0.00000000E+00  0.00000000E+00
  0.00000000E+00  0.00000000E+00  0.00000000E+00
  0.00000000E+00  0.00000000E+00  0.00000000E+00
  0.00000000E+00  0.00000000E+00  0.00000000E+00
  0.00000000E+00  0.00000000E+00  0.00000000E+00
  0.00000000E+00  0.00000000E+00  0.00000000E+00
  0.00000000E+00  0.00000000E+00  0.00000000E+00
  0.00000000E+00  0.00000000E+00  0.00000000E+00
  0.00000000E+00  0.00000000E+00  0.00000000E+00
  0.00000000E+00  0.00000000E+00  0.00000000E+00
  0.00000000E+00  0.00000000E+00  0.00000000E+00
  0.00000000E+00  0.00000000E+00  0.00000000E+00
  0.00000000E+00  0.00000000E+00  0.00000000E+00
  0.00000000E+00  0.00000000E+00  0.00000000E+00
  0.00000000E+00  0.00000000E+00  0.00000000E+00
  0.00000000E+00  0.00000000E+00  0.00000000E+00
  0.00000000E+00  0.00000000E+00  0.00000000E+00
  0.00000000E+00  0.00000000E+00  0.00000000E+00
  0.00000000E+00  0.00000000E+00  0.00000000E+00
  0.00000000E+00  0.00000000E+00  0.00000000E+00
  0.00000000E+00  0.00000000E+00  0.00000000E+00
  0.00000000E+00  0.00000000E+00  0.00000000E+00
  0.00000000E+00  0.00000000E+00  0.00000000E+00
  0.00000000E+00  0.00000000E+00  0.00000000E+00
  0.00000000E+00  0.00000000E+00  0.00000000E+00
  0.00000000E+00  0.00000000E+00  0.00000000E+00
  0.00000000E+00  0.00000000E+00  0.00000000E+00
  0.00000000E+00  0.00000000E+00  0.00000000E+00
  0.00000000E+00  0.00000000E+00  0.00000000E+00
  0.00000000E+00  0.00000000E+00  0.00000000E+00
  0.00000000E+00  0.00000000E+00  0.00000000E+00
  0.00000000E+00  0.00000000E+00  0.00000000E+00
  0.00000000E+00  0.00000000E+00  0.00000000E+00
  0.00000000E+00  0.00000000E+00  0.00000000E+00
  0.00000000E+00  0.00000000E+00  0.00000000E+00
  0.00000000E+00  0.00000000E+00  0.00000000E+00
  0.00000000E+00  0.00000000E+00  0.00000000E+00
  0.00000000E+00  0.00000000E+00  0.00000000E+00
  0.00000000E+00  0.00000000E+00  0.00000000E+00
  0.00000000E+00  0.00000000E+00  0.00000000E+00
  0.00000000E+00  0.00000000E+00  0.00000000E+00
  0.00000000E+00  0.00000000E+00  0.00000000E+00
  0.00000000E+00  0.00000000E+00  0.00000000E+00
  0.00000000E+00  0.00000000E+00  0.00000000E+00
  0.00000000E+00  0.00000000E+00  0.00000000E+00
  0.00000000E+00  0.00000000E+00  0.00000000E+00
  0.00000000E+00  0.00000000E+00  0.00000000E+00
  0.00000000E+00  0.00000000E+00  0.00000000E+00
  0.00000000E+00  0.00000000E+00  0.00000000E+00
  0.00000000E+00  0.00000000E+00  0.00000000E+00
  0.00000000E+00  0.00000000E+00  0.00000000E+00
  0.00000000E+00  0.00000000E+00  0.00000000E+00
  0.00000000E+00  0.00000000E+00  0.00000000E+00
  0.00000000E+00  0.00000000E+00  0.00000000E+00
  0.00000000E+00  0.00000000E+00  0.00000000E+00
  0.00000000E+00  0.00000000E+00  0.00000000E+00
  0.00000000E+00  0.00000000E+00  0.00000000E+00
  0.00000000E+00  0.00000000E+00  0.00000000E+00
  0.00000000E+00  0.00000000E+00  0.00000000E+00
  0.00000000E+00  0.00000000E+00  0.00000000E+00
  0.00000000E+00  0.00000000E+00  0.00000000E+00
  0.00000000E+00  0.00000000E+00  0.00000000E+00
  0.00000000E+00  0.00000000E+00  0.00000000E+00
  0.00000000E+00  0.00000000E+00  0.00000000E+00
  0.00000000E+00  0.00000000E+00  0.00000000E+00
  0.00000000E+00  0.00000000E+00  0.00000000E+00
  0.00000000E+00  0.00000000E+00  0.00000000E+00
  0.00000000E+00  0.00000000E+00  0.00000000E+00
  0.00000000E+00  0.00000000E+00  0.00000000E+00
  0.00000000E+00  0.00000000E+00  0.00000000E+00
  0.00000000E+00  0.00000000E+00  0.00000000E+00
  0.00000000E+00  0.00000000E+00  0.00000000E+00
  0.00000000E+00  0.00000000E+00  0.00000000E+00
  0.00000000E+00  0.00000000E+00  0.00000000E+00
  0.00000000E+00  0.00000000E+00  0.00000000E+00
  0.00000000E+00  0.00000000E+00  0.00000000E+00
  0.00000000E+00  0.00000000E+00  0.00000000E+00
  0.00000000E+00  0.00000000E+00  0.00000000E+00
  0.00000000E+00  0.00000000E+00  0.00000000E+00
  0.00000000E+00  0.00000000E+00  0.00000000E+00
  0.00000000E+00  0.00000000E+00  0.00000000E+00
  0.00000000E+00  0.00000000E+00  0.00000000E+00
  0.00000000E+00  0.00000000E+00  0.00000000E+00
  0.00000000E+00  0.00000000E+00  0.00000000E+00
  0.00000000E+00  0.00000000E+00  0.00000000E+00
  0.00000000E+00  0.00000000E+00  0.00000000E+00
  0.00000000E+00  0.00000000E+00  0.00000000E+00
  0.00000000E+00  0.00000000E+00  0.00000000E+00
  0.00000000E+00  0.00000000E+00  0.00000000E+00
  0.00000000E+00  0.00000000E+00  0.00000000E+00
  0.00000000E+00  0.00000000E+00  0.00000000E+00
  0.00000000E+00  0.00000000E+00  0.00000000E+00
  0.00000000E+00  0.00000000E+00  0.00000000E+00
  0.00000000E+00  0.00000000E+00  0.00000000E+00
  0.00000000E+00  0.00000000E+00  0.00000000E+00
  0.00000000E+00  0.00000000E+00  0.00000000E+00
  0.00000000E+00  0.00000000E+00  0.00000000E+00
  0.00000000E+00  0.00000000E+00  0.00000000E+00
  0.00000000E+00  0.00000000E+00  0.00000000E+00
  0.00000000E+00  0.00000000E+00  0.00000000E+00
  0.00000000E+00  0.00000000E+00  0.00000000E+00
  0.00000000E+00  0.00000000E+00  0.00000000E+00
  0.00000000E+00  0.00000000E+00  0.00000000E+00
  0.00000000E+00  0.00000000E+00  0.00000000E+00
  0.00000000E+00  0.00000000E+00  0.00000000E+00
  0.00000000E+00  0.00000000E+00  0.00000000E+00
  0.00000000E+00  0.00000000E+00  0.00000000E+00
  0.00000000E+00  0.00000000E+00  0.00000000E+00
  0.00000000E+00  0.00000000E+00  0.00000000E+00
  0.00000000E+00  0.00000000E+00  0.00000000E+00
  0.00000000E+00  0.00000000E+00  0.00000000E+00
  0.00000000E+00  0.00000000E+00  0.00000000E+00
  0.00000000E+00  0.00000000E+00  0.00000000E+00
  0.00000000E+00  0.00000000E+00  0.00000000E+00
  0.00000000E+00  0.00000000E+00  0.00000000E+00
  0.00000000E+00  0.00000000E+00  0.00000000E+00
  0.00000000E+00  0.00000000E+00  0.00000000E+00
  0.00000000E+00  0.00000000E+00  0.00000000E+00
  0.00000000E+00  0.00000000E+00  0.00000000E+00
  0.00000000E+00  0.00000000E+00  0.00000000E+00
  0.00000000E+00  0.00000000E+00  0.00000000E+00
  0.00000000E+00  0.00000000E+00  0.00000000E+00
  0.00000000E+00  0.00000000E+00  0.00000000E+00
