Zn2 O2                                  
   1.00000000000000     
    12.9943542480000005    0.0000000000000000    0.0000000000000000
    -6.4971766471999999   11.2534400587000007    0.0000000000000000
     0.0000000000000000    0.0000000000000000   15.6120386123999992
   Zn   O    V 
    95    95     1
Direct
  0.1666413786267060  0.0833586133732933  0.1662507200003968
  0.1667356059532640  0.0832643860467353  0.5002831156927319
  0.1666779891513686  0.0833220028486308  0.8333976791427630
  0.1664381210778649  0.3332122420539641  0.1663776906209381
  0.1662058234286143  0.3330984102150404  0.5001067786246308
  0.1666267015290595  0.3333054269871831  0.8336217383834532
  0.1666352813806711  0.5832692296127736  0.1662513299974425
  0.1667437217428772  0.5834728628096926  0.5002877620905972
  0.1666763024660292  0.5833518706975955  0.8334068446527397
  0.1667112124144588  0.8333532622368460  0.1662271777713455
  0.1672413078327611  0.8336219573106902  0.5003396633576888
  0.1666985720405632  0.8333525426374334  0.8335594601961385
  0.4166467377631540  0.0832887795855405  0.1662271777713455
  0.4163780426893098  0.0827586841672383  0.5003396633576888
  0.4166474573625665  0.0833014199594361  0.8335594601961385
  0.4159713394443754  0.3329089070326757  0.1665352047430231
  0.4130683998816295  0.3311352044862512  0.5016358179312171
  0.4177759563662461  0.3339480269559611  0.8329543645793478
  0.4159628708880325  0.5830663935469150  0.1665315257721940
  0.4129950750503228  0.5819568493083158  0.5016331631479362
  0.4177487373047867  0.5838442227578036  0.8329763462285660
  0.4166378734241817  0.8333621265758183  0.1662250899864982
  0.4163434301091347  0.8336565698908653  0.5003451144545754
  0.4166290295140219  0.8333709704859781  0.8335725847181772
  0.6667307703872264  0.0833647106193282  0.1662513299974425
  0.6665271371903074  0.0832562702571222  0.5002877620905972
  0.6666481293024045  0.0833236895339701  0.8334068446527397
  0.6669460386398637  0.3329038388643092  0.1665294500140449
  0.6681313945313900  0.3310636748787437  0.5016454262393815
  0.6661919238185466  0.3339235205908095  0.8329721477847879
  0.6666653458563550  0.5833346541436450  0.1670637164985003
  0.6666559655106602  0.5833440344893398  0.8350547682112414
  0.6669336064530850  0.8340371291119674  0.1665315257721940
  0.6680431506916842  0.8370049249496770  0.5016331631479362
  0.6661557772421964  0.8322512626952133  0.8329763462285660
  0.9167877579460358  0.0835618709221345  0.1663776906209381
  0.9169015897849596  0.0837941685713851  0.5001067786246308
  0.9166945730128170  0.0833732904709398  0.8336217383834532
  0.9167916677023107  0.3332083322976893  0.1663766459620003
  0.9169242340524333  0.3330757659475667  0.5001056259134193
  0.9167113784358301  0.3332886215641702  0.8336384865239824
  0.9170961611356908  0.5830539613601363  0.1665294500140449
  0.9189363251212562  0.5818686054686100  0.5016454262393815
  0.9160764794091905  0.5838080761814534  0.8329721477847879
  0.9170910929673244  0.8340286605556247  0.1665352047430231
  0.9188647955137488  0.8369316001183705  0.5016358179312171
  0.9160519730440390  0.8322240436337538  0.8329543645793478
  0.0833427571765249  0.1666572348234744  0.0000400342926656
  0.0833087809998955  0.1666912110001039  0.3330934172137823
  0.0834062415582280  0.1665937504417714  0.6669628592669131
  0.0833475542511872  0.4166793560653205  0.0000473829769066
  0.0833158292287538  0.4166205399402537  0.3330937426593119
  0.0834473574071706  0.4168456825871754  0.6669768524612357
  0.0832245134579806  0.6665884754979358  0.9997899177381355
  0.0842162305661835  0.6670220726048471  0.3328599832781460
  0.0822331921609832  0.6667317630483587  0.6672573224529548
  0.0832144011910776  0.9166256431322934  0.9997825746011785
  0.0842152009311374  0.9171989217453727  0.3328664369078504
  0.0821651088003882  0.9154756530517053  0.6672383011710961
  0.3333743568677066  0.1667855908089217  0.9997825746011785
  0.3328010782546274  0.1657847910688619  0.3328664369078504
  0.3345243469482946  0.1678348831996112  0.6672383011710961
  0.3334308899330317  0.4167182867087198  0.9997545033728861
  0.3323951859763555  0.4162093732913588  0.3330526445204698
  0.3336728999021029  0.4168773281125222  0.6678043785122617
  0.3333662153282554  0.6665971224906683  0.9997922527585948
  0.3328018345016022  0.6670362045809707  0.3328580259952882
  0.3345083234262354  0.6667822906932234  0.6672612033089462
  0.3333271165939977  0.9166728834060023  0.0000316588702996
  0.3333234904072566  0.9166765095927363  0.3327352350590991
  0.3332987563288993  0.9167012436711006  0.6669812259419196
  0.5834115245020642  0.1667754785420187  0.9997899177381355
  0.5829779273951529  0.1657837614338159  0.3328599832781460
  0.5832682369516413  0.1677667998390162  0.6672573224529548
  0.5832224552413428  0.4164314969802648  0.0008418017834511
  0.5824568523102048  0.4148928628383791  0.3307335328214558
  0.5896487775066693  0.4291511701440195  0.6644485479635962
  0.5832155428378142  0.6667844571621858  0.0008485231080433
  0.5824383178698658  0.6675616821301342  0.3307323888023046
  0.5895558245381558  0.6604441754618442  0.6644604579417482
  0.5834028775093317  0.9166337846717518  0.9997922527585948
  0.5829637954190293  0.9171981654983977  0.3328580259952882
  0.5832177093067766  0.9154916765737646  0.6672612033089462
  0.8333206439346723  0.1666524377488121  0.0000473829769066
  0.8333794600597463  0.1666841627712455  0.3330937426593119
  0.8331543174128245  0.1665526345928287  0.6669768524612357
  0.8332801803640524  0.4167198196359477  0.9997560426379328
  0.8338165759216992  0.4161834240783008  0.3330447907639292
  0.8332388995378692  0.4167611004621308  0.6678257539153322
  0.8335685030197353  0.6667775447586572  0.0008418017834511
  0.8351071371616209  0.6675431476897952  0.3307335328214558
  0.8208488298559804  0.6603512224933307  0.6644485479635962
  0.8332817132912802  0.9165691100669683  0.9997545033728861
  0.8337906267086411  0.9176048140236445  0.3330526445204698
  0.8331226718874778  0.9163271000978971  0.6678043785122617
  0.1666282144932023  0.0833717775067970  0.2937670494927109
  0.1669706075568255  0.0830293844431738  0.6271530861936940
  0.1666753072610344  0.0833246847389649  0.9604689101887197
  0.1666357126861790  0.3333090757667062  0.2938417312396785
  0.1675088310878224  0.3337528130429340  0.6269630679345912
  0.1667694528164574  0.3333756798329932  0.9606218093449022
  0.1666219692834036  0.5832419298889757  0.2937609938425830
  0.1669890798446660  0.5839520710303864  0.6271548235353505
  0.1666726914728306  0.5833329046465936  0.9604761151198775
  0.1665774810717271  0.8332877844213941  0.2937167610687188
  0.1662944336323806  0.8331535327461688  0.6269636274459274
  0.1666262554103097  0.8333077670736166  0.9605571470004218
  0.4167122155786059  0.0834225109282723  0.2937167610687188
  0.4168464672538382  0.0837055583676188  0.6269636274459274
  0.4166922329263834  0.0833737365896897  0.9605571470004218
  0.4167245655846559  0.3333649019897024  0.2946299966808517
  0.4205772926530728  0.3364862943753663  0.6274627488252271
  0.4172831426391955  0.3337032039915603  0.9601851267160132
  0.4167062347483901  0.5833581914376944  0.2946208191722069
  0.4205154877247458  0.5841812454200642  0.6274650207866882
  0.4172767167978102  0.5835844032829750  0.9602009277637121
  0.4166995872398548  0.8333004127601381  0.2937110459834145
  0.4168039075557732  0.8331960924442269  0.6269659466771687
  0.4166850267847965  0.8333149732152035  0.9605669088873477
  0.6667580701110243  0.0833780227165957  0.2937609938425830
  0.6660479289696136  0.0830109121553333  0.6271548235353505
  0.6666670953534064  0.0833273005271688  0.9604761151198775
  0.6666606887198072  0.3333532964892967  0.2946209569670301
  0.6659839145986096  0.3363856225162284  0.6274702098575144
  0.6664344038270953  0.3336853214475318  0.9601988127680913
  0.6666658457728267  0.5833341542271733  0.2967019302634750
  0.6666709085584137  0.5833290914415863  0.9614109287086037
  0.6666418085623056  0.8332937652516100  0.2946208191722069
  0.6658187545799358  0.8294845122752542  0.6274650207866882
  0.6664155967170250  0.8327232832021898  0.9602009277637121
  0.9166909242332938  0.0833642793138204  0.2938417312396785
  0.9162471869570660  0.0824911609121769  0.6269630679345912
  0.9166243201670068  0.0832305391835419  0.9606218093449022
  0.9166999496525404  0.3333000503474526  0.2938382248186221
  0.9163120422498797  0.3336879577501204  0.6269596648611487
  0.9166298407377942  0.3333701592622058  0.9606295090033314
  0.9166467035107032  0.5833393112801928  0.2946209569670301
  0.9136143774837716  0.5840160854013904  0.6274702098575144
  0.9163146785524683  0.5835655961729047  0.9601988127680913
  0.9166350980102976  0.8332754344153440  0.2946299966808517
  0.9135137056246336  0.8294227073469200  0.6274627488252271
  0.9162967960084397  0.8327168573608046  0.9601851267160132
  0.0833398473394990  0.1666601446605004  0.1272860391928373
  0.0834953990468534  0.1665045929531459  0.4604000828189602
  0.0833190427616473  0.1666809492383521  0.7936884329128658
  0.0833427591191866  0.4166802255041354  0.1272902758882409
  0.0835240736715263  0.4170137765356365  0.4603955504234559
  0.0833323795930015  0.4166511780018896  0.7936955380377648
  0.0831793366858218  0.6665728903866470  0.1272314542584786
  0.0826366887410027  0.6667291215654448  0.4603442586446676
  0.0829185863602471  0.6665443249257048  0.7938111545487729
  0.0831748415357076  0.9166099993589023  0.1272277258299138
  0.0825947414229604  0.9158876083955566  0.4603537566761669
  0.0829038607113733  0.9163713091523092  0.7937989730908575
  0.3333900006410977  0.1668251504642917  0.1272277258299138
  0.3341123916044433  0.1674052505770389  0.4603537566761669
  0.3336286908476979  0.1670961312886189  0.7937989730908575
  0.3334337413789377  0.4167234131661716  0.1273541049437708
  0.3342925538410507  0.4171684262393568  0.4605128197309701
  0.3335290904232970  0.4167829504524871  0.7940744856905493
  0.3333828779050398  0.6665803707402741  0.1272323204098481
  0.3340860643794544  0.6667761797949677  0.4603406127699570
  0.3336144596531274  0.6665714456353651  0.7938157949459868
  0.3333250488495481  0.9166749511504519  0.1272774984597109
  0.3333073381685159  0.9166926618314771  0.4600190785105057
  0.3333178541468969  0.9166821458531029  0.7937458904572023
  0.5834271096133530  0.1668206553141775  0.1272314542584786
  0.5832708784345552  0.1673633032589967  0.4603442586446676
  0.5834556750742952  0.1670814056397522  0.7938111545487729
  0.5834181524698310  0.4168377840531412  0.1285361654504890
  0.5866160581654721  0.4230643522321280  0.4629656826527398
  0.5843290913725830  0.4185980316166735  0.7912154514717928
  0.5834116084856149  0.6665883915143851  0.1285385570591366
  0.5864766746825661  0.6635233253174339  0.4629605941230665
  0.5842708458290650  0.6657291541709350  0.7912224946124577
  0.5834196292597259  0.9166171220949603  0.1272323204098481
  0.5832238202050323  0.9159139356205457  0.4603406127699570
  0.5834285543646349  0.9163855403468725  0.7938157949459868
  0.8333197744958648  0.1666572328808128  0.1272902758882409
  0.8329862234643635  0.1664759183284801  0.4603955504234559
  0.8333488219981104  0.1666676124069978  0.7936955380377648
  0.8332874021279321  0.4167125978720678  0.1273563341960718
  0.8329026792276231  0.4170973207723768  0.4604973202194310
  0.8332594636987960  0.4167405363012040  0.7940864009765850
  0.8331622159468589  0.6665818475301690  0.1285361654504890
  0.8269356477678720  0.6633839418345279  0.4629656826527398
  0.8314019683833265  0.6656709086274170  0.7912154514717928
  0.8332765868338285  0.9165662586210622  0.1273541049437708
  0.8328315737606432  0.9157074461589492  0.4605128197309701
  0.8332170495475129  0.9164709095767029  0.7940744856905493
  0.6666450369677587  0.5833549630322413  0.4967981265583613
 
  0.00000000E+00  0.00000000E+00  0.00000000E+00
  0.00000000E+00  0.00000000E+00  0.00000000E+00
  0.00000000E+00  0.00000000E+00  0.00000000E+00
  0.00000000E+00  0.00000000E+00  0.00000000E+00
  0.00000000E+00  0.00000000E+00  0.00000000E+00
  0.00000000E+00  0.00000000E+00  0.00000000E+00
  0.00000000E+00  0.00000000E+00  0.00000000E+00
  0.00000000E+00  0.00000000E+00  0.00000000E+00
  0.00000000E+00  0.00000000E+00  0.00000000E+00
  0.00000000E+00  0.00000000E+00  0.00000000E+00
  0.00000000E+00  0.00000000E+00  0.00000000E+00
  0.00000000E+00  0.00000000E+00  0.00000000E+00
  0.00000000E+00  0.00000000E+00  0.00000000E+00
  0.00000000E+00  0.00000000E+00  0.00000000E+00
  0.00000000E+00  0.00000000E+00  0.00000000E+00
  0.00000000E+00  0.00000000E+00  0.00000000E+00
  0.00000000E+00  0.00000000E+00  0.00000000E+00
  0.00000000E+00  0.00000000E+00  0.00000000E+00
  0.00000000E+00  0.00000000E+00  0.00000000E+00
  0.00000000E+00  0.00000000E+00  0.00000000E+00
  0.00000000E+00  0.00000000E+00  0.00000000E+00
  0.00000000E+00  0.00000000E+00  0.00000000E+00
  0.00000000E+00  0.00000000E+00  0.00000000E+00
  0.00000000E+00  0.00000000E+00  0.00000000E+00
  0.00000000E+00  0.00000000E+00  0.00000000E+00
  0.00000000E+00  0.00000000E+00  0.00000000E+00
  0.00000000E+00  0.00000000E+00  0.00000000E+00
  0.00000000E+00  0.00000000E+00  0.00000000E+00
  0.00000000E+00  0.00000000E+00  0.00000000E+00
  0.00000000E+00  0.00000000E+00  0.00000000E+00
  0.00000000E+00  0.00000000E+00  0.00000000E+00
  0.00000000E+00  0.00000000E+00  0.00000000E+00
  0.00000000E+00  0.00000000E+00  0.00000000E+00
  0.00000000E+00  0.00000000E+00  0.00000000E+00
  0.00000000E+00  0.00000000E+00  0.00000000E+00
  0.00000000E+00  0.00000000E+00  0.00000000E+00
  0.00000000E+00  0.00000000E+00  0.00000000E+00
  0.00000000E+00  0.00000000E+00  0.00000000E+00
  0.00000000E+00  0.00000000E+00  0.00000000E+00
  0.00000000E+00  0.00000000E+00  0.00000000E+00
  0.00000000E+00  0.00000000E+00  0.00000000E+00
  0.00000000E+00  0.00000000E+00  0.00000000E+00
  0.00000000E+00  0.00000000E+00  0.00000000E+00
  0.00000000E+00  0.00000000E+00  0.00000000E+00
  0.00000000E+00  0.00000000E+00  0.00000000E+00
  0.00000000E+00  0.00000000E+00  0.00000000E+00
  0.00000000E+00  0.00000000E+00  0.00000000E+00
  0.00000000E+00  0.00000000E+00  0.00000000E+00
  0.00000000E+00  0.00000000E+00  0.00000000E+00
  0.00000000E+00  0.00000000E+00  0.00000000E+00
  0.00000000E+00  0.00000000E+00  0.00000000E+00
  0.00000000E+00  0.00000000E+00  0.00000000E+00
  0.00000000E+00  0.00000000E+00  0.00000000E+00
  0.00000000E+00  0.00000000E+00  0.00000000E+00
  0.00000000E+00  0.00000000E+00  0.00000000E+00
  0.00000000E+00  0.00000000E+00  0.00000000E+00
  0.00000000E+00  0.00000000E+00  0.00000000E+00
  0.00000000E+00  0.00000000E+00  0.00000000E+00
  0.00000000E+00  0.00000000E+00  0.00000000E+00
  0.00000000E+00  0.00000000E+00  0.00000000E+00
  0.00000000E+00  0.00000000E+00  0.00000000E+00
  0.00000000E+00  0.00000000E+00  0.00000000E+00
  0.00000000E+00  0.00000000E+00  0.00000000E+00
  0.00000000E+00  0.00000000E+00  0.00000000E+00
  0.00000000E+00  0.00000000E+00  0.00000000E+00
  0.00000000E+00  0.00000000E+00  0.00000000E+00
  0.00000000E+00  0.00000000E+00  0.00000000E+00
  0.00000000E+00  0.00000000E+00  0.00000000E+00
  0.00000000E+00  0.00000000E+00  0.00000000E+00
  0.00000000E+00  0.00000000E+00  0.00000000E+00
  0.00000000E+00  0.00000000E+00  0.00000000E+00
  0.00000000E+00  0.00000000E+00  0.00000000E+00
  0.00000000E+00  0.00000000E+00  0.00000000E+00
  0.00000000E+00  0.00000000E+00  0.00000000E+00
  0.00000000E+00  0.00000000E+00  0.00000000E+00
  0.00000000E+00  0.00000000E+00  0.00000000E+00
  0.00000000E+00  0.00000000E+00  0.00000000E+00
  0.00000000E+00  0.00000000E+00  0.00000000E+00
  0.00000000E+00  0.00000000E+00  0.00000000E+00
  0.00000000E+00  0.00000000E+00  0.00000000E+00
  0.00000000E+00  0.00000000E+00  0.00000000E+00
  0.00000000E+00  0.00000000E+00  0.00000000E+00
  0.00000000E+00  0.00000000E+00  0.00000000E+00
  0.00000000E+00  0.00000000E+00  0.00000000E+00
  0.00000000E+00  0.00000000E+00  0.00000000E+00
  0.00000000E+00  0.00000000E+00  0.00000000E+00
  0.00000000E+00  0.00000000E+00  0.00000000E+00
  0.00000000E+00  0.00000000E+00  0.00000000E+00
  0.00000000E+00  0.00000000E+00  0.00000000E+00
  0.00000000E+00  0.00000000E+00  0.00000000E+00
  0.00000000E+00  0.00000000E+00  0.00000000E+00
  0.00000000E+00  0.00000000E+00  0.00000000E+00
  0.00000000E+00  0.00000000E+00  0.00000000E+00
  0.00000000E+00  0.00000000E+00  0.00000000E+00
  0.00000000E+00  0.00000000E+00  0.00000000E+00
  0.00000000E+00  0.00000000E+00  0.00000000E+00
  0.00000000E+00  0.00000000E+00  0.00000000E+00
  0.00000000E+00  0.00000000E+00  0.00000000E+00
  0.00000000E+00  0.00000000E+00  0.00000000E+00
  0.00000000E+00  0.00000000E+00  0.00000000E+00
  0.00000000E+00  0.00000000E+00  0.00000000E+00
  0.00000000E+00  0.00000000E+00  0.00000000E+00
  0.00000000E+00  0.00000000E+00  0.00000000E+00
  0.00000000E+00  0.00000000E+00  0.00000000E+00
  0.00000000E+00  0.00000000E+00  0.00000000E+00
  0.00000000E+00  0.00000000E+00  0.00000000E+00
  0.00000000E+00  0.00000000E+00  0.00000000E+00
  0.00000000E+00  0.00000000E+00  0.00000000E+00
  0.00000000E+00  0.00000000E+00  0.00000000E+00
  0.00000000E+00  0.00000000E+00  0.00000000E+00
  0.00000000E+00  0.00000000E+00  0.00000000E+00
  0.00000000E+00  0.00000000E+00  0.00000000E+00
  0.00000000E+00  0.00000000E+00  0.00000000E+00
  0.00000000E+00  0.00000000E+00  0.00000000E+00
  0.00000000E+00  0.00000000E+00  0.00000000E+00
  0.00000000E+00  0.00000000E+00  0.00000000E+00
  0.00000000E+00  0.00000000E+00  0.00000000E+00
  0.00000000E+00  0.00000000E+00  0.00000000E+00
  0.00000000E+00  0.00000000E+00  0.00000000E+00
  0.00000000E+00  0.00000000E+00  0.00000000E+00
  0.00000000E+00  0.00000000E+00  0.00000000E+00
  0.00000000E+00  0.00000000E+00  0.00000000E+00
  0.00000000E+00  0.00000000E+00  0.00000000E+00
  0.00000000E+00  0.00000000E+00  0.00000000E+00
  0.00000000E+00  0.00000000E+00  0.00000000E+00
  0.00000000E+00  0.00000000E+00  0.00000000E+00
  0.00000000E+00  0.00000000E+00  0.00000000E+00
  0.00000000E+00  0.00000000E+00  0.00000000E+00
  0.00000000E+00  0.00000000E+00  0.00000000E+00
  0.00000000E+00  0.00000000E+00  0.00000000E+00
  0.00000000E+00  0.00000000E+00  0.00000000E+00
  0.00000000E+00  0.00000000E+00  0.00000000E+00
  0.00000000E+00  0.00000000E+00  0.00000000E+00
  0.00000000E+00  0.00000000E+00  0.00000000E+00
  0.00000000E+00  0.00000000E+00  0.00000000E+00
  0.00000000E+00  0.00000000E+00  0.00000000E+00
  0.00000000E+00  0.00000000E+00  0.00000000E+00
  0.00000000E+00  0.00000000E+00  0.00000000E+00
  0.00000000E+00  0.00000000E+00  0.00000000E+00
  0.00000000E+00  0.00000000E+00  0.00000000E+00
  0.00000000E+00  0.00000000E+00  0.00000000E+00
  0.00000000E+00  0.00000000E+00  0.00000000E+00
  0.00000000E+00  0.00000000E+00  0.00000000E+00
  0.00000000E+00  0.00000000E+00  0.00000000E+00
  0.00000000E+00  0.00000000E+00  0.00000000E+00
  0.00000000E+00  0.00000000E+00  0.00000000E+00
  0.00000000E+00  0.00000000E+00  0.00000000E+00
  0.00000000E+00  0.00000000E+00  0.00000000E+00
  0.00000000E+00  0.00000000E+00  0.00000000E+00
  0.00000000E+00  0.00000000E+00  0.00000000E+00
  0.00000000E+00  0.00000000E+00  0.00000000E+00
  0.00000000E+00  0.00000000E+00  0.00000000E+00
  0.00000000E+00  0.00000000E+00  0.00000000E+00
  0.00000000E+00  0.00000000E+00  0.00000000E+00
  0.00000000E+00  0.00000000E+00  0.00000000E+00
  0.00000000E+00  0.00000000E+00  0.00000000E+00
  0.00000000E+00  0.00000000E+00  0.00000000E+00
  0.00000000E+00  0.00000000E+00  0.00000000E+00
  0.00000000E+00  0.00000000E+00  0.00000000E+00
  0.00000000E+00  0.00000000E+00  0.00000000E+00
  0.00000000E+00  0.00000000E+00  0.00000000E+00
  0.00000000E+00  0.00000000E+00  0.00000000E+00
  0.00000000E+00  0.00000000E+00  0.00000000E+00
  0.00000000E+00  0.00000000E+00  0.00000000E+00
  0.00000000E+00  0.00000000E+00  0.00000000E+00
  0.00000000E+00  0.00000000E+00  0.00000000E+00
  0.00000000E+00  0.00000000E+00  0.00000000E+00
  0.00000000E+00  0.00000000E+00  0.00000000E+00
  0.00000000E+00  0.00000000E+00  0.00000000E+00
  0.00000000E+00  0.00000000E+00  0.00000000E+00
  0.00000000E+00  0.00000000E+00  0.00000000E+00
  0.00000000E+00  0.00000000E+00  0.00000000E+00
  0.00000000E+00  0.00000000E+00  0.00000000E+00
  0.00000000E+00  0.00000000E+00  0.00000000E+00
  0.00000000E+00  0.00000000E+00  0.00000000E+00
  0.00000000E+00  0.00000000E+00  0.00000000E+00
  0.00000000E+00  0.00000000E+00  0.00000000E+00
  0.00000000E+00  0.00000000E+00  0.00000000E+00
  0.00000000E+00  0.00000000E+00  0.00000000E+00
  0.00000000E+00  0.00000000E+00  0.00000000E+00
  0.00000000E+00  0.00000000E+00  0.00000000E+00
  0.00000000E+00  0.00000000E+00  0.00000000E+00
  0.00000000E+00  0.00000000E+00  0.00000000E+00
  0.00000000E+00  0.00000000E+00  0.00000000E+00
  0.00000000E+00  0.00000000E+00  0.00000000E+00
  0.00000000E+00  0.00000000E+00  0.00000000E+00
  0.00000000E+00  0.00000000E+00  0.00000000E+00
  0.00000000E+00  0.00000000E+00  0.00000000E+00
  0.00000000E+00  0.00000000E+00  0.00000000E+00
  0.00000000E+00  0.00000000E+00  0.00000000E+00
  0.00000000E+00  0.00000000E+00  0.00000000E+00
