Zn2 O2                                  
   1.00000000000000     
    12.9943542480000005    0.0000000000000000    0.0000000000000000
    -6.4971766471999999   11.2534400587000007    0.0000000000000000
     0.0000000000000000    0.0000000000000000   15.6120386123999992
   Zn   O    Nb
    95    95     1
Direct
  0.1665817951186136  0.0834181968813857  0.1656095799294370
  0.1667705306293425  0.0832294613706569  0.5001885158152937
  0.1665505638794269  0.0834494281205724  0.8337557683613297
  0.1660046424220344  0.3329856377489527  0.1659032012039569
  0.1650838038850580  0.3325250673410938  0.4999339706174002
  0.1664560647256359  0.3332025436698701  0.8338601353253332
  0.1665748526613286  0.5831429973165422  0.1656162243346609
  0.1667677747331319  0.5835364136179408  0.5002011277339332
  0.1665246005492652  0.5830698811858697  0.8337955310631923
  0.1669422789859391  0.8334688618852649  0.1655781350727181
  0.1680121405415273  0.8340084758082064  0.5004767140861586
  0.1668460305323102  0.8334339752395367  0.8340090297401448
  0.4165311381147352  0.0830577130140603  0.1655781350727181
  0.4159915241917938  0.0819878514584720  0.5004767140861586
  0.4165660247604633  0.0831539614676891  0.8340090297401448
  0.4149028707549376  0.3322679632579145  0.1658976110130786
  0.4065398297068655  0.3267288983959534  0.5026795063394950
  0.4178232026327367  0.3339617689280384  0.8335189084209543
  0.4148885253489602  0.5826274641678820  0.1658874581748529
  0.4064525716874168  0.5798243023773436  0.5026773623152093
  0.4177514711904832  0.5838889250469520  0.8335283399432690
  0.4165182020650400  0.8334817979349600  0.1655675592916428
  0.4159566231531036  0.8340433768468964  0.5004981945358976
  0.4165215317061711  0.8334784682938288  0.8340375913270479
  0.6668570026834578  0.0834251393386708  0.1656162243346609
  0.6664635863820592  0.0832322172668675  0.5002011277339332
  0.6669301188141303  0.0834753914507342  0.8337955310631923
  0.6673824154480396  0.3322563113839172  0.1659004517901467
  0.6702560962145095  0.3266913521196388  0.5026777442878126
  0.6661724998572454  0.3339235002384142  0.8335229218839416
  0.6666599353721939  0.5833400646278061  0.1665698725240153
  0.6666452643589874  0.5833547356410126  0.8360123422756680
  0.6673725358321180  0.8351114746510399  0.1658874581748529
  0.6701756976226564  0.8435474283125832  0.5026773623152093
  0.6661110749530480  0.8322485288095168  0.8335283399432690
  0.9170143622510402  0.0839953495779649  0.1659032012039569
  0.9174749326589061  0.0849161881149413  0.4999339706174002
  0.9167974563301299  0.0835439272743635  0.8338601353253332
  0.9170167353909152  0.3329832646090919  0.1659048109143782
  0.9175405297227612  0.3324594702772388  0.4999524952578230
  0.9168230654570489  0.3331769345429511  0.8338678406460206
  0.9177436886160828  0.5826175845519604  0.1659004517901467
  0.9233086478803542  0.5797439037854905  0.5026777442878126
  0.9160764997615858  0.5838275001427546  0.8335229218839416
  0.9177320367420855  0.8350971292450623  0.1658976110130786
  0.9232711016040538  0.8434601702931346  0.5026795063394950
  0.9160382310719616  0.8321767973672632  0.8335189084209543
  0.0833060424976879  0.1666939495023115  0.9998851597429804
  0.0833252680033265  0.1666747239966729  0.3324774029451336
  0.0833471879532326  0.1666528040467667  0.6671148308895087
  0.0833124189973670  0.4166028005822128  0.9998982798719002
  0.0833337316010268  0.4166287723973650  0.3324799515967874
  0.0834100949603332  0.4167205371767228  0.6671299797080776
  0.0833264081083184  0.6666499518848706  0.9996838127834140
  0.0850724199223875  0.6674545012204840  0.3319921919285675
  0.0834785208749942  0.6672299501573794  0.6681172004253914
  0.0833243344032547  0.9166759792895479  0.9996832109174859
  0.0850735456621219  0.9176111518623895  0.3319928624640866
  0.0834094008948880  0.9162245659181074  0.6680868863157099
  0.3333240207104592  0.1666756575967447  0.9996832109174859
  0.3323888481376105  0.1649264463378775  0.3319928624640866
  0.3337754340818927  0.1665905911051113  0.6680868863157099
  0.3333369345636800  0.4166653394941814  0.9996826766323226
  0.3315097489381924  0.4157442175669857  0.3324374287360460
  0.3327849349085034  0.4164436629719016  0.6687145913314252
  0.3333224663842849  0.6666480191276053  0.9996811602620777
  0.3323700661812680  0.6674721887340304  0.3319849293671384
  0.3337391162331258  0.6673009294788177  0.6681303001747998
  0.3333179901424129  0.9166820098575871  0.9998484588855689
  0.3333259068271467  0.9166740931728461  0.3322155406746309
  0.3332799097147103  0.9167200902852897  0.6673603034382921
  0.5833500481151294  0.1666735838916809  0.9996838127834140
  0.5825454987795160  0.1649275720776118  0.3319921919285675
  0.5827700498426206  0.1665214711250051  0.6681172004253914
  0.5831480298363554  0.4162847751982076  0.0016817343901089
  0.5817047893622802  0.4133717097901184  0.3258676369899707
  0.5876813990260117  0.4252245600844141  0.6650731355313116
  0.5831445559911287  0.6668554440088713  0.0016779229757369
  0.5816397956439042  0.6683602043560958  0.3258860644308119
  0.5875434560042785  0.6624565439957215  0.6651043650788089
  0.5833519808723947  0.9166775336157221  0.9996811602620777
  0.5825278112659696  0.9176299338187320  0.3319849293671384
  0.5826990705211823  0.9162608837668742  0.6681303001747998
  0.8333971994177872  0.1666875730026324  0.9998982798719002
  0.8333712276026350  0.1666662603989726  0.3324799515967874
  0.8332794628232771  0.1665898970396661  0.6671299797080776
  0.8333243187559264  0.4166756812440737  0.9996861076665114
  0.8342786716450430  0.4157213283549570  0.3324424745034467
  0.8336913996984302  0.4163086003015699  0.6686898953143694
  0.8337152248017924  0.6668519701636446  0.0016817343901089
  0.8366282902098887  0.6682952106377198  0.3258676369899707
  0.8247754399155859  0.6623186009739883  0.6650731355313116
  0.8333346605058186  0.9166630654363200  0.9996826766323226
  0.8342557824330143  0.9184902510618077  0.3324374287360460
  0.8335563370280985  0.9172150650914966  0.6687145913314252
  0.1665456680907773  0.0834543239092221  0.2932785576821652
  0.1669362172641988  0.0830637747358006  0.6268993443361212
  0.1666527324436324  0.0833472595563670  0.9605062954744439
  0.1664375362373167  0.3331954824799737  0.2935527617772927
  0.1675156841948663  0.3337428741893730  0.6265977770894228
  0.1668535106335328  0.3334133003937939  0.9605718314747335
  0.1665211845461756  0.5830508025625833  0.2932811395147550
  0.1669481314806086  0.5838771494353413  0.6269095158771157
  0.1666447102986726  0.5832856374522660  0.9605353009333647
  0.1666558137921726  0.8333193739488299  0.2931939073138560
  0.1662723314466396  0.8331458486308035  0.6269584438554614
  0.1665902341427469  0.8332915873608965  0.9606371336937908
  0.4166806260511700  0.0833441782078267  0.2931939073138560
  0.4168541513692035  0.0837276605533597  0.6269584438554614
  0.4167084126391036  0.0834097578572525  0.9606371336937908
  0.4161530580200677  0.3331284185736288  0.2947412052649377
  0.4192918167614723  0.3355293370403785  0.6273521889105425
  0.4176648720138691  0.3339227120062655  0.9604993247689404
  0.4161094342421677  0.5829919635952677  0.2947294283492235
  0.4191831475562639  0.5838531884031322  0.6273602353633968
  0.4176456258303589  0.5837457375863213  0.9605069251944267
  0.4166652379669916  0.8333347620330084  0.2931847206194286
  0.4167980118687384  0.8332019881312616  0.6269707279783219
  0.4166905049254917  0.8333094950745084  0.9606583448883257
  0.6669491974374167  0.0834788074538237  0.2932811395147550
  0.6661228505646587  0.0830518605193907  0.6269095158771157
  0.6667143625477340  0.0833552817013267  0.9605353009333647
  0.6670216890619798  0.3331389000411472  0.2947436149037411
  0.6662868211633169  0.3353980795588179  0.6273537515056025
  0.6662839806200106  0.3339011605355122  0.9605030057201659
  0.6666436016347834  0.5833563983652166  0.2989989351358770
  0.6666700529851741  0.5833299470148259  0.9622160344983979
  0.6670080364047323  0.8338905657578322  0.2947294283492235
  0.6661468115968678  0.8308168524437362  0.6273602353633968
  0.6662542624136787  0.8323543741696411  0.9605069251944267
  0.9168045175200263  0.0835624557626827  0.2935527617772927
  0.9162571258106271  0.0824843078051331  0.6265977770894228
  0.9165866996062063  0.0831464813664665  0.9605718314747335
  0.9168142231667602  0.3331857768332326  0.2935513951235419
  0.9163343829743803  0.3336656170256198  0.6266109443693977
  0.9165928290937909  0.3334071709062091  0.9605831814332673
  0.9168610999588528  0.5829783109380202  0.2947436149037411
  0.9146019204411820  0.5837131788366831  0.6273537515056025
  0.9160988394644878  0.5837160193799894  0.9605030057201659
  0.9168715814263712  0.8338469419799323  0.2947412052649377
  0.9144706629596214  0.8307081832385277  0.6273521889105425
  0.9160772879937346  0.8323351279861309  0.9604993247689404
  0.0833395135549568  0.1666604784450425  0.1270348544890194
  0.0836673388685802  0.1663326531314191  0.4600483993472974
  0.0833162624743427  0.1666837295256567  0.7935611553613630
  0.0833460449509688  0.4166689187354045  0.1270462552827889
  0.0837134008390121  0.4173475420778740  0.4600514636356784
  0.0833458818994599  0.4166321650194983  0.7935730977927775
  0.0832954793899461  0.6666403679188294  0.1270509457111950
  0.0836313633412107  0.6674765608805301  0.4596699923341119
  0.0827965690173963  0.6665128774472792  0.7941514792606547
  0.0832877476004656  0.9166551835887278  0.1270429488727029
  0.0835832435499852  0.9161393229255593  0.4596757510451875
  0.0827557034867466  0.9162678274845354  0.7941279273927767
  0.3333448164112723  0.1667122443995337  0.1270429488727029
  0.3338606770744477  0.1664167484500141  0.4596757510451875
  0.3337321725154718  0.1672442885132527  0.7941279273927767
  0.3332142626546741  0.4166056775768832  0.1272806508102664
  0.3345081427059998  0.4172693470746998  0.4602403188446076
  0.3337714130081621  0.4169102025342457  0.7944170671027365
  0.3333358993030396  0.6666468035076121  0.1270498579493480
  0.3338301632456331  0.6675148182384234  0.4596662375674630
  0.3336927686021979  0.6665617821226006  0.7941607779024636
  0.3333205464546498  0.9166794535453502  0.1269315009504701
  0.3333045196725503  0.9166954803274496  0.4595950713843071
  0.3333009548632778  0.9166990451367221  0.7938049390053138
  0.5833596320811706  0.1667045126100532  0.1270509457111950
  0.5825234391194699  0.1663686286587887  0.4596699923341119
  0.5834871225527208  0.1672034229826030  0.7941514792606547
  0.5833968675600597  0.4167750786148470  0.1299004437868624
  0.5871630118699402  0.4241430973782545  0.4649416348298223
  0.5845301181102657  0.4189853357074992  0.7908772700244261
  0.5833760170411194  0.6666239829588806  0.1298955390555596
  0.5869736590165846  0.6630263409834154  0.4649890427311075
  0.5844416454922116  0.6655583545077884  0.7908935331638873
  0.5833531964923879  0.9166641006969605  0.1270498579493480
  0.5824851817615766  0.9161698367543669  0.4596662375674630
  0.5834382178773994  0.9163072313978021  0.7941607779024636
  0.8333310812645954  0.1666539470490305  0.1270462552827889
  0.8326524579221259  0.1662865911609873  0.4600514636356784
  0.8333678349805017  0.1666541101005394  0.7935730977927775
  0.8334040439263792  0.4165959560736208  0.1272913968835580
  0.8328329014073164  0.4171670985926835  0.4602464658202540
  0.8331590588038469  0.4168409411961531  0.7944074341816970
  0.8332249213851530  0.6666031324399403  0.1299004437868624
  0.8258569026217456  0.6628369881300598  0.4649416348298223
  0.8310146642925007  0.6654698818897343  0.7908772700244261
  0.8333943224231168  0.9167857373453259  0.1272806508102664
  0.8327306529253000  0.9154918572940001  0.4602403188446076
  0.8330897974657543  0.9162285869918380  0.7944170671027365
  0.6666285776576081  0.5833714223423919  0.5028134078033014
 
  0.00000000E+00  0.00000000E+00  0.00000000E+00
  0.00000000E+00  0.00000000E+00  0.00000000E+00
  0.00000000E+00  0.00000000E+00  0.00000000E+00
  0.00000000E+00  0.00000000E+00  0.00000000E+00
  0.00000000E+00  0.00000000E+00  0.00000000E+00
  0.00000000E+00  0.00000000E+00  0.00000000E+00
  0.00000000E+00  0.00000000E+00  0.00000000E+00
  0.00000000E+00  0.00000000E+00  0.00000000E+00
  0.00000000E+00  0.00000000E+00  0.00000000E+00
  0.00000000E+00  0.00000000E+00  0.00000000E+00
  0.00000000E+00  0.00000000E+00  0.00000000E+00
  0.00000000E+00  0.00000000E+00  0.00000000E+00
  0.00000000E+00  0.00000000E+00  0.00000000E+00
  0.00000000E+00  0.00000000E+00  0.00000000E+00
  0.00000000E+00  0.00000000E+00  0.00000000E+00
  0.00000000E+00  0.00000000E+00  0.00000000E+00
  0.00000000E+00  0.00000000E+00  0.00000000E+00
  0.00000000E+00  0.00000000E+00  0.00000000E+00
  0.00000000E+00  0.00000000E+00  0.00000000E+00
  0.00000000E+00  0.00000000E+00  0.00000000E+00
  0.00000000E+00  0.00000000E+00  0.00000000E+00
  0.00000000E+00  0.00000000E+00  0.00000000E+00
  0.00000000E+00  0.00000000E+00  0.00000000E+00
  0.00000000E+00  0.00000000E+00  0.00000000E+00
  0.00000000E+00  0.00000000E+00  0.00000000E+00
  0.00000000E+00  0.00000000E+00  0.00000000E+00
  0.00000000E+00  0.00000000E+00  0.00000000E+00
  0.00000000E+00  0.00000000E+00  0.00000000E+00
  0.00000000E+00  0.00000000E+00  0.00000000E+00
  0.00000000E+00  0.00000000E+00  0.00000000E+00
  0.00000000E+00  0.00000000E+00  0.00000000E+00
  0.00000000E+00  0.00000000E+00  0.00000000E+00
  0.00000000E+00  0.00000000E+00  0.00000000E+00
  0.00000000E+00  0.00000000E+00  0.00000000E+00
  0.00000000E+00  0.00000000E+00  0.00000000E+00
  0.00000000E+00  0.00000000E+00  0.00000000E+00
  0.00000000E+00  0.00000000E+00  0.00000000E+00
  0.00000000E+00  0.00000000E+00  0.00000000E+00
  0.00000000E+00  0.00000000E+00  0.00000000E+00
  0.00000000E+00  0.00000000E+00  0.00000000E+00
  0.00000000E+00  0.00000000E+00  0.00000000E+00
  0.00000000E+00  0.00000000E+00  0.00000000E+00
  0.00000000E+00  0.00000000E+00  0.00000000E+00
  0.00000000E+00  0.00000000E+00  0.00000000E+00
  0.00000000E+00  0.00000000E+00  0.00000000E+00
  0.00000000E+00  0.00000000E+00  0.00000000E+00
  0.00000000E+00  0.00000000E+00  0.00000000E+00
  0.00000000E+00  0.00000000E+00  0.00000000E+00
  0.00000000E+00  0.00000000E+00  0.00000000E+00
  0.00000000E+00  0.00000000E+00  0.00000000E+00
  0.00000000E+00  0.00000000E+00  0.00000000E+00
  0.00000000E+00  0.00000000E+00  0.00000000E+00
  0.00000000E+00  0.00000000E+00  0.00000000E+00
  0.00000000E+00  0.00000000E+00  0.00000000E+00
  0.00000000E+00  0.00000000E+00  0.00000000E+00
  0.00000000E+00  0.00000000E+00  0.00000000E+00
  0.00000000E+00  0.00000000E+00  0.00000000E+00
  0.00000000E+00  0.00000000E+00  0.00000000E+00
  0.00000000E+00  0.00000000E+00  0.00000000E+00
  0.00000000E+00  0.00000000E+00  0.00000000E+00
  0.00000000E+00  0.00000000E+00  0.00000000E+00
  0.00000000E+00  0.00000000E+00  0.00000000E+00
  0.00000000E+00  0.00000000E+00  0.00000000E+00
  0.00000000E+00  0.00000000E+00  0.00000000E+00
  0.00000000E+00  0.00000000E+00  0.00000000E+00
  0.00000000E+00  0.00000000E+00  0.00000000E+00
  0.00000000E+00  0.00000000E+00  0.00000000E+00
  0.00000000E+00  0.00000000E+00  0.00000000E+00
  0.00000000E+00  0.00000000E+00  0.00000000E+00
  0.00000000E+00  0.00000000E+00  0.00000000E+00
  0.00000000E+00  0.00000000E+00  0.00000000E+00
  0.00000000E+00  0.00000000E+00  0.00000000E+00
  0.00000000E+00  0.00000000E+00  0.00000000E+00
  0.00000000E+00  0.00000000E+00  0.00000000E+00
  0.00000000E+00  0.00000000E+00  0.00000000E+00
  0.00000000E+00  0.00000000E+00  0.00000000E+00
  0.00000000E+00  0.00000000E+00  0.00000000E+00
  0.00000000E+00  0.00000000E+00  0.00000000E+00
  0.00000000E+00  0.00000000E+00  0.00000000E+00
  0.00000000E+00  0.00000000E+00  0.00000000E+00
  0.00000000E+00  0.00000000E+00  0.00000000E+00
  0.00000000E+00  0.00000000E+00  0.00000000E+00
  0.00000000E+00  0.00000000E+00  0.00000000E+00
  0.00000000E+00  0.00000000E+00  0.00000000E+00
  0.00000000E+00  0.00000000E+00  0.00000000E+00
  0.00000000E+00  0.00000000E+00  0.00000000E+00
  0.00000000E+00  0.00000000E+00  0.00000000E+00
  0.00000000E+00  0.00000000E+00  0.00000000E+00
  0.00000000E+00  0.00000000E+00  0.00000000E+00
  0.00000000E+00  0.00000000E+00  0.00000000E+00
  0.00000000E+00  0.00000000E+00  0.00000000E+00
  0.00000000E+00  0.00000000E+00  0.00000000E+00
  0.00000000E+00  0.00000000E+00  0.00000000E+00
  0.00000000E+00  0.00000000E+00  0.00000000E+00
  0.00000000E+00  0.00000000E+00  0.00000000E+00
  0.00000000E+00  0.00000000E+00  0.00000000E+00
  0.00000000E+00  0.00000000E+00  0.00000000E+00
  0.00000000E+00  0.00000000E+00  0.00000000E+00
  0.00000000E+00  0.00000000E+00  0.00000000E+00
  0.00000000E+00  0.00000000E+00  0.00000000E+00
  0.00000000E+00  0.00000000E+00  0.00000000E+00
  0.00000000E+00  0.00000000E+00  0.00000000E+00
  0.00000000E+00  0.00000000E+00  0.00000000E+00
  0.00000000E+00  0.00000000E+00  0.00000000E+00
  0.00000000E+00  0.00000000E+00  0.00000000E+00
  0.00000000E+00  0.00000000E+00  0.00000000E+00
  0.00000000E+00  0.00000000E+00  0.00000000E+00
  0.00000000E+00  0.00000000E+00  0.00000000E+00
  0.00000000E+00  0.00000000E+00  0.00000000E+00
  0.00000000E+00  0.00000000E+00  0.00000000E+00
  0.00000000E+00  0.00000000E+00  0.00000000E+00
  0.00000000E+00  0.00000000E+00  0.00000000E+00
  0.00000000E+00  0.00000000E+00  0.00000000E+00
  0.00000000E+00  0.00000000E+00  0.00000000E+00
  0.00000000E+00  0.00000000E+00  0.00000000E+00
  0.00000000E+00  0.00000000E+00  0.00000000E+00
  0.00000000E+00  0.00000000E+00  0.00000000E+00
  0.00000000E+00  0.00000000E+00  0.00000000E+00
  0.00000000E+00  0.00000000E+00  0.00000000E+00
  0.00000000E+00  0.00000000E+00  0.00000000E+00
  0.00000000E+00  0.00000000E+00  0.00000000E+00
  0.00000000E+00  0.00000000E+00  0.00000000E+00
  0.00000000E+00  0.00000000E+00  0.00000000E+00
  0.00000000E+00  0.00000000E+00  0.00000000E+00
  0.00000000E+00  0.00000000E+00  0.00000000E+00
  0.00000000E+00  0.00000000E+00  0.00000000E+00
  0.00000000E+00  0.00000000E+00  0.00000000E+00
  0.00000000E+00  0.00000000E+00  0.00000000E+00
  0.00000000E+00  0.00000000E+00  0.00000000E+00
  0.00000000E+00  0.00000000E+00  0.00000000E+00
  0.00000000E+00  0.00000000E+00  0.00000000E+00
  0.00000000E+00  0.00000000E+00  0.00000000E+00
  0.00000000E+00  0.00000000E+00  0.00000000E+00
  0.00000000E+00  0.00000000E+00  0.00000000E+00
  0.00000000E+00  0.00000000E+00  0.00000000E+00
  0.00000000E+00  0.00000000E+00  0.00000000E+00
  0.00000000E+00  0.00000000E+00  0.00000000E+00
  0.00000000E+00  0.00000000E+00  0.00000000E+00
  0.00000000E+00  0.00000000E+00  0.00000000E+00
  0.00000000E+00  0.00000000E+00  0.00000000E+00
  0.00000000E+00  0.00000000E+00  0.00000000E+00
  0.00000000E+00  0.00000000E+00  0.00000000E+00
  0.00000000E+00  0.00000000E+00  0.00000000E+00
  0.00000000E+00  0.00000000E+00  0.00000000E+00
  0.00000000E+00  0.00000000E+00  0.00000000E+00
  0.00000000E+00  0.00000000E+00  0.00000000E+00
  0.00000000E+00  0.00000000E+00  0.00000000E+00
  0.00000000E+00  0.00000000E+00  0.00000000E+00
  0.00000000E+00  0.00000000E+00  0.00000000E+00
  0.00000000E+00  0.00000000E+00  0.00000000E+00
  0.00000000E+00  0.00000000E+00  0.00000000E+00
  0.00000000E+00  0.00000000E+00  0.00000000E+00
  0.00000000E+00  0.00000000E+00  0.00000000E+00
  0.00000000E+00  0.00000000E+00  0.00000000E+00
  0.00000000E+00  0.00000000E+00  0.00000000E+00
  0.00000000E+00  0.00000000E+00  0.00000000E+00
  0.00000000E+00  0.00000000E+00  0.00000000E+00
  0.00000000E+00  0.00000000E+00  0.00000000E+00
  0.00000000E+00  0.00000000E+00  0.00000000E+00
  0.00000000E+00  0.00000000E+00  0.00000000E+00
  0.00000000E+00  0.00000000E+00  0.00000000E+00
  0.00000000E+00  0.00000000E+00  0.00000000E+00
  0.00000000E+00  0.00000000E+00  0.00000000E+00
  0.00000000E+00  0.00000000E+00  0.00000000E+00
  0.00000000E+00  0.00000000E+00  0.00000000E+00
  0.00000000E+00  0.00000000E+00  0.00000000E+00
  0.00000000E+00  0.00000000E+00  0.00000000E+00
  0.00000000E+00  0.00000000E+00  0.00000000E+00
  0.00000000E+00  0.00000000E+00  0.00000000E+00
  0.00000000E+00  0.00000000E+00  0.00000000E+00
  0.00000000E+00  0.00000000E+00  0.00000000E+00
  0.00000000E+00  0.00000000E+00  0.00000000E+00
  0.00000000E+00  0.00000000E+00  0.00000000E+00
  0.00000000E+00  0.00000000E+00  0.00000000E+00
  0.00000000E+00  0.00000000E+00  0.00000000E+00
  0.00000000E+00  0.00000000E+00  0.00000000E+00
  0.00000000E+00  0.00000000E+00  0.00000000E+00
  0.00000000E+00  0.00000000E+00  0.00000000E+00
  0.00000000E+00  0.00000000E+00  0.00000000E+00
  0.00000000E+00  0.00000000E+00  0.00000000E+00
  0.00000000E+00  0.00000000E+00  0.00000000E+00
  0.00000000E+00  0.00000000E+00  0.00000000E+00
  0.00000000E+00  0.00000000E+00  0.00000000E+00
  0.00000000E+00  0.00000000E+00  0.00000000E+00
  0.00000000E+00  0.00000000E+00  0.00000000E+00
  0.00000000E+00  0.00000000E+00  0.00000000E+00
  0.00000000E+00  0.00000000E+00  0.00000000E+00
  0.00000000E+00  0.00000000E+00  0.00000000E+00
  0.00000000E+00  0.00000000E+00  0.00000000E+00
  0.00000000E+00  0.00000000E+00  0.00000000E+00
  0.00000000E+00  0.00000000E+00  0.00000000E+00
