system = zno 

Starting parameters for this run:
 PREC = A  # Normal for relax. Normal or Accurate for the final cal.
 ISTART = 0     # job : 0-new 1-cont 2-samecut
 ICHARG = 2     # charge: 1-file 2-atom 10-constant
 ISPIN = 1      # 1 for unpolarized calculation 2 for spin polarized cal.
 #MAGMOM = 76*0.0 1*1.0 2*0.0 1*1.0 11*0.0 1*1.0 78*0.0 1*1.0 2*0.0 1*1.0 11*0.0 1*1.0 4*0.0 1*1.4
 NCORE = 4 # Parallel
 KPAR = 2
 #NELECT=1722
 #PRECFOCK=fast
 ENAUG= 1200

Electronic Relaxation 
 ENCUT = 550
 NELM = 1500
 NELMIN = 4
 EDIFF = 1E-08  # stopping criterion for ELM #we use smaller convergence criteria for relaxation
# LREAL = Auto  # default: false, the real space one is recommended for more than 20 atoms
# ALGO = Normal  # default: Normal:IALGO of 38, Fast-mixture of 38 and 48, VeryFast-48 for ialgo


Ionic relaxation
# EDIFFG = -1E-02
# NSW = 100    # number of steps for IR
 IBRION = -1     # ionic relaxation: 0-MD 1-quasi Newtonian 2-Conjugate Gradient
# ISIF = 3       # Stress and Relaxation: 2-Ion 3-cell+ion
# ISYM = 2       # 0-nonsym 1-usesym 2-fastsym, default: 2 for PAW dataset
# POTIM = 0.5    # time step for ionic motion, default: 0.5
 ADDGRID  = .TRUE.   # Improve the grid accuracy

DOS related values
 ISMEAR = 0   # See https://www.vasp.at/wiki/index.php/ISMEAR for the recommendation
 SIGMA =0.005    # default: 0.2, related to the elec. temp.
# NEDOS = 1000   # default: 300
# NBANDS = 1240

Write flags
 LWAVE = F     # write WAVECAR
 LCHARG = F     # write CHGCAR
 LVHAR = T      # write LOCPOT, local potential
 LVTOT = F
 LELF = F       # write electronic localization function (ELF)
 LORBIT = 11    # not read RWIGS line, gives DOSCAR and lm decomposed PROCAR

# Hybrid functional
# ALGO = Damped
# Time = 0.3
# LHFCALC = T
# HFSCREEN = 0.2
# AEXX = 0.375 # alpha for ZnO ref. J. Phys. Condens. Matter 22 (2010) 284211
# GGA = PE

SCAN functional
#  GGA = PE
  METAGGA = r2SCAN
  LASPH = .TRUE.
  ADDGRID  = .TRUE.


DFT+U Calculation
LDAU   = .TRUE.        (Activate DFT+U)
LDATYPE=  2            (Dudarev, only U-J matters)
LDAUL  =  2  1         (l Orbitals for each species,-1 for not adding U)
LDAUU  =  2  0         (U for each species: here for Zn and O)
LDAUJ  =  0  0         (J for each species)
LDAUPRINT=1            (Verbosity, 0 low, 1 high)
LMAXMIX=  4            (Mixing cut-off, 4-d, 6-f)

 
