Generated from the PW2PY python module  
   1.00000000000000     
     3.2213245391633305   -0.0000000000049087    0.0000000000000000
    -1.6106622690901127    2.7897488840370950   -0.0000000000000000
     0.0000000000000000    0.0000000000000000    5.1859419652118124
   Zn   O 
     2     2
Direct
  0.6666669999999968  0.3333330000000032  0.5007897576338407
  0.3333330000000032  0.6666669999999968  0.0007897576338407
  0.6666669999999968  0.3333330000000032  0.8809102423661543
  0.3333330000000032  0.6666669999999968  0.3809102423661544
 
  0.00000000E+00  0.00000000E+00  0.00000000E+00
  0.00000000E+00  0.00000000E+00  0.00000000E+00
  0.00000000E+00  0.00000000E+00  0.00000000E+00
  0.00000000E+00  0.00000000E+00  0.00000000E+00
