  Zn2 O2                                
   1.00000000000000     
    12.9943542480000005    0.0000000000000000    0.0000000000000000
    -6.4971766471999999   11.2534400587000007    0.0000000000000000
     0.0000000000000000    0.0000000000000000   15.6120386123999992
   Zn   O    Mo
    95    95     1
Direct
  0.1665783770168756  0.0834216309831251  0.1655327537525200
  0.1666292242232035  0.0833707837767971  0.4990643621442390
  0.1665512847579725  0.0834487232420281  0.8336974910200480
  0.1659475900598291  0.3329738020299081  0.1656944372013258
  0.1645082807509800  0.3322541473754941  0.4988751260097416
  0.1658329119981820  0.3329164629990881  0.8338726780072940
  0.1665783770168756  0.5831567230337593  0.1655327537525200
  0.1666292242232035  0.5832584174464152  0.4990643621442390
  0.1665512847579725  0.5831025385159389  0.8336974910200480
  0.1669929195278319  0.8334964367639212  0.1655331877514215
  0.1680796275887253  0.8340397907943501  0.4996184600000783
  0.1669819669227756  0.8334909604613824  0.8339017293905127
  0.4165035632360788  0.0830070884721688  0.1655331877514215
  0.4159602092056428  0.0819203804112754  0.4996184600000783
  0.4165090395386176  0.0830180410772250  0.8339017293905127
  0.4146504431148976  0.3321111272088214  0.1659727209670144
  0.4069495659605480  0.3269496198332831  0.5002097311546539
  0.4157972526285096  0.3331718896550633  0.8351825439287047
  0.4146504431148976  0.5825392849060701  0.1659727209670144
  0.4069495659605480  0.5799999151272587  0.5002097311546539
  0.4157972526285096  0.5826253319734402  0.8351825439287047
  0.4165035632360788  0.8334964367639212  0.1655331877514215
  0.4159602092056428  0.8340397907943501  0.4996184600000783
  0.4165090395386176  0.8334909604613824  0.8339017293905127
  0.6668432769662407  0.0834216309831251  0.1655327537525200
  0.6667415825535848  0.0833707837767971  0.4990643621442390
  0.6668974614840611  0.0834487232420281  0.8336974910200480
  0.6674607150939299  0.3321111272088214  0.1659727209670144
  0.6700000848727413  0.3269496198332831  0.5002097311546539
  0.6673746680265598  0.3331718896550633  0.8351825439287047
  0.6666666870000029  0.5833333129999971  0.1677059284076211
  0.6666666870000029  0.5833333129999971  0.8366860154419773
  0.6674607150939299  0.8353495568851024  0.1659727209670144
  0.6700000848727413  0.8430504340394519  0.5002097311546539
  0.6673746680265598  0.8342027473714902  0.8351825439287047
  0.9170262279700873  0.0840524179401715  0.1656944372013258
  0.9177458826245084  0.0854917272490207  0.4988751260097416
  0.9170835670009145  0.0841670960018187  0.8338726780072940
  0.9170262279700873  0.3329738020299081  0.1656944372013258
  0.9177458826245084  0.3322541473754941  0.4988751260097416
  0.9170835670009145  0.3329164629990881  0.8338726780072940
  0.9178889027911813  0.5825392849060701  0.1659727209670144
  0.9230504101667192  0.5799999151272587  0.5002097311546539
  0.9168281403449392  0.5826253319734402  0.8351825439287047
  0.9178889027911813  0.8353495568851024  0.1659727209670144
  0.9230504101667192  0.8430504340394519  0.5002097311546539
  0.9168281403449392  0.8342027473714902  0.8351825439287047
  0.0833087931747457  0.1666912148252620  0.9999170057883000
  0.0832938583838453  0.1667061496161554  0.3319232838446834
  0.0829199742740950  0.1670800337259057  0.6666535724298814
  0.0833087931747457  0.4166176013494892  0.9999170057883000
  0.0832938583838453  0.4165877317677025  0.3319232838446834
  0.0829199742740950  0.4158399635481663  0.6666535724298814
  0.0835188018474469  0.6667365699130537  0.9998871741454737
  0.0854283746602385  0.6675480672964971  0.3316601259551425
  0.0863925816783866  0.6670157647672124  0.6674246318389133
  0.0835188018474469  0.9167822699343962  0.9998871741454737
  0.0854283746602385  0.9178803453637374  0.3316601259551425
  0.0863925816783866  0.9193768549111773  0.6674246318389133
  0.3332177600656063  0.1664812061525538  0.9998871741454737
  0.3321196846362580  0.1645716333397622  0.3316601259551425
  0.3306231750888252  0.1636074263216141  0.6674246318389133
  0.3331359936305925  0.4165680123152992  0.0000565879650061
  0.3311073627493543  0.4155536968746731  0.3318303127951509
  0.3301087513898664  0.4150543911949363  0.6687570828907169
  0.3332177600656063  0.6667365699130537  0.9998871741454737
  0.3321196846362580  0.6675480672964971  0.3316601259551425
  0.3306231750888252  0.6670157647672124  0.6674246318389133
  0.3333333429999996  0.9166666870000029  0.9998669749891308
  0.3333333429999996  0.9166666870000029  0.3318833213612251
  0.3333333429999996  0.9166666870000029  0.6665782243632965
  0.5832634300869463  0.1664812061525538  0.9998871741454737
  0.5824519327035029  0.1645716333397622  0.3316601259551425
  0.5829842352327876  0.1636074263216141  0.6674246318389133
  0.5831836903331344  0.4163674416662774  0.0025771303901845
  0.5807474043935750  0.4114948697871516  0.3262018708583003
  0.5708087183949613  0.3916174977899381  0.6715397196837738
  0.5831836903331344  0.6668163096668656  0.0025771303901845
  0.5807474043935750  0.6692525956064250  0.3262018708583003
  0.5708087183949613  0.6791912816050387  0.6715397196837738
  0.5832634300869463  0.9167822699343962  0.9998871741454737
  0.5824519327035029  0.9178803453637374  0.3316601259551425
  0.5829842352327876  0.9193768549111773  0.6674246318389133
  0.8333823986505109  0.1666912148252620  0.9999170057883000
  0.8334122682322975  0.1667061496161554  0.3319232838446834
  0.8341600364518339  0.1670800337259057  0.6666535724298814
  0.8334319876847007  0.4165680123152992  0.0000565879650061
  0.8344463031253269  0.4155536968746731  0.3318303127951509
  0.8349456088050637  0.4150543911949363  0.6687570828907169
  0.8336325583337225  0.6668163096668656  0.0025771303901845
  0.8385051302128484  0.6692525956064250  0.3262018708583003
  0.8583825022100620  0.6791912816050387  0.6715397196837738
  0.8334319876847007  0.9168640363694102  0.0000565879650061
  0.8344463031253269  0.9188926672506482  0.3318303127951509
  0.8349456088050637  0.9198912786101360  0.6687570828907169
  0.1665201095096873  0.0834798984903134  0.2930918905880050
  0.1663745370047818  0.0836254709952189  0.6260353450445764
  0.1667068071090023  0.0832932008909983  0.9599577675045242
  0.1663238881561142  0.3331619510780577  0.2932611374705898
  0.1667813892425993  0.3333907016213002  0.6258168316195784
  0.1670322905557514  0.3335161522778727  0.9601594371340806
  0.1665201095096873  0.5830401880193899  0.2930918905880050
  0.1663745370047818  0.5827490430095645  0.6260353450445764
  0.1667068071090023  0.5834135832180056  0.9599577675045242
  0.1666560679901845  0.8333280109950939  0.2930952468482989
  0.1655650461853909  0.8327825000926969  0.6266994232151265
  0.1664670790532166  0.8332335165266064  0.9601174576259724
  0.4166719890049062  0.0833439400098162  0.2930952468482989
  0.4172174999073028  0.0844349618146097  0.6266994232151265
  0.4167664834733936  0.0835329289467841  0.9601174576259724
  0.4157069805520353  0.3328672104662985  0.2946102343795581
  0.4156163199043554  0.3337680864814812  0.6260373188174373
  0.4179088718282866  0.3341237639255400  0.9607864199192039
  0.4157069805520353  0.5828397390857306  0.2946102343795581
  0.4156163199043554  0.5818482024228682  0.6260373188174373
  0.4179088718282866  0.5837850769027404  0.9607864199192039
  0.4166719890049062  0.8333280109950939  0.2930952468482989
  0.4172174999073028  0.8327825000926969  0.6266994232151265
  0.4167664834733936  0.8332335165266064  0.9601174576259724
  0.6669598119806101  0.0834798984903134  0.2930918905880050
  0.6672509569904355  0.0836254709952189  0.6260353450445764
  0.6665864167819944  0.0832932008909983  0.9599577675045242
  0.6671602609142694  0.3328672104662985  0.2946102343795581
  0.6681517975771318  0.3337680864814812  0.6260373188174373
  0.6662149230972596  0.3341237639255400  0.9607864199192039
  0.6666666870000029  0.5833333129999971  0.3019116389923612
  0.6666666870000029  0.5833333129999971  0.9621965874385117
  0.6671602609142694  0.8342930194479649  0.2946102343795581
  0.6681517975771318  0.8343836800956447  0.6260373188174373
  0.6662149230972596  0.8320911281717133  0.9607864199192039
  0.9168380789219448  0.0836761198438865  0.2932611374705898
  0.9166093283787022  0.0832186187574013  0.6258168316195784
  0.9164838777221298  0.0829677174442493  0.9601594371340806
  0.9168380789219448  0.3331619510780577  0.2932611374705898
  0.9166093283787022  0.3333907016213002  0.6258168316195784
  0.9164838777221298  0.3335161522778727  0.9601594371340806
  0.9171328195337038  0.5828397390857306  0.2946102343795581
  0.9162319435185214  0.5818482024228682  0.6260373188174373
  0.9158762660744626  0.5837850769027404  0.9607864199192039
  0.9171328195337038  0.8342930194479649  0.2946102343795581
  0.9162319435185214  0.8343836800956447  0.6260373188174373
  0.9158762660744626  0.8320911281717133  0.9607864199192039
  0.0833748296905862  0.1666251783094144  0.1267560758994202
  0.0836952678278524  0.1663047401721482  0.4596109013589948
  0.0834178160529063  0.1665821919470943  0.7929751540179935
  0.0833748296905862  0.4167496743811702  0.1267560758994202
  0.0836952678278524  0.4173905506557168  0.4596109013589948
  0.0834178160529063  0.4168356471058103  0.7929751540179935
  0.0832261277360770  0.6666476889579495  0.1268676723068344
  0.0842049671196377  0.6676733828635057  0.4595173977297953
  0.0821715264236540  0.6663646039753699  0.7932015364580863
  0.0832261277360770  0.9165784767781306  0.1268676723068344
  0.0842049671196377  0.9165316222561424  0.4595173977297953
  0.0821715264236540  0.9158069604482870  0.7932015364580863
  0.3334215532218718  0.1667738802639236  0.1268676723068344
  0.3334684077438603  0.1657950408803629  0.4595173977297953
  0.3341930695517152  0.1678284815763466  0.7932015364580863
  0.3333589088309440  0.4166794699154680  0.1271368122620416
  0.3338971096275409  0.4169485703137735  0.4598616598546845
  0.3339501322245086  0.4169750816122574  0.7940245367367216
  0.3334215532218718  0.6666476889579495  0.1268676723068344
  0.3334684077438603  0.6676733828635057  0.4595173977297953
  0.3341930695517152  0.6663646039753699  0.7932015364580863
  0.3333333429999996  0.9166666870000029  0.1267104237900192
  0.3333333429999996  0.9166666870000029  0.4595880449929320
  0.3333333429999996  0.9166666870000029  0.7929509351007383
  0.5833523110420505  0.1667738802639236  0.1268676723068344
  0.5823266171364943  0.1657950408803629  0.4595173977297953
  0.5836353960246301  0.1678284815763466  0.7932015364580863
  0.5835926918923280  0.4171854447846718  0.1304962795184525
  0.5839669598190815  0.4179339806381786  0.4642011245839467
  0.5842958000766932  0.4185916611533883  0.7919961968138617
  0.5835926918923280  0.6664073081076720  0.1304962795184525
  0.5839669598190815  0.6660330401809185  0.4642011245839467
  0.5842958000766932  0.6657041999233068  0.7919961968138617
  0.5833523110420505  0.9165784767781306  0.1268676723068344
  0.5823266171364943  0.9165316222561424  0.4595173977297953
  0.5836353960246301  0.9158069604482870  0.7932015364580863
  0.8332503256188298  0.1666251783094144  0.1267560758994202
  0.8326094493442833  0.1663047401721482  0.4596109013589948
  0.8331643528941897  0.1665821919470943  0.7929751540179935
  0.8333205300845319  0.4166794699154680  0.1271368122620416
  0.8330514296862264  0.4169485703137735  0.4598616598546845
  0.8330249183877426  0.4169750816122574  0.7940245367367216
  0.8328145552153283  0.6664073081076720  0.1304962795184525
  0.8320660193618213  0.6660330401809185  0.4642011245839467
  0.8314083388466117  0.6657041999233068  0.7919961968138617
  0.8333205300845319  0.9166411211690584  0.1271368122620416
  0.8330514296862264  0.9161029203724615  0.4598616598546845
  0.8330249183877426  0.9160498977754937  0.7940245367367216
  0.6666666870000029  0.5833333129999971  0.4875043094569954
 
  0.00000000E+00  0.00000000E+00  0.00000000E+00
  0.00000000E+00  0.00000000E+00  0.00000000E+00
  0.00000000E+00  0.00000000E+00  0.00000000E+00
  0.00000000E+00  0.00000000E+00  0.00000000E+00
  0.00000000E+00  0.00000000E+00  0.00000000E+00
  0.00000000E+00  0.00000000E+00  0.00000000E+00
  0.00000000E+00  0.00000000E+00  0.00000000E+00
  0.00000000E+00  0.00000000E+00  0.00000000E+00
  0.00000000E+00  0.00000000E+00  0.00000000E+00
  0.00000000E+00  0.00000000E+00  0.00000000E+00
  0.00000000E+00  0.00000000E+00  0.00000000E+00
  0.00000000E+00  0.00000000E+00  0.00000000E+00
  0.00000000E+00  0.00000000E+00  0.00000000E+00
  0.00000000E+00  0.00000000E+00  0.00000000E+00
  0.00000000E+00  0.00000000E+00  0.00000000E+00
  0.00000000E+00  0.00000000E+00  0.00000000E+00
  0.00000000E+00  0.00000000E+00  0.00000000E+00
  0.00000000E+00  0.00000000E+00  0.00000000E+00
  0.00000000E+00  0.00000000E+00  0.00000000E+00
  0.00000000E+00  0.00000000E+00  0.00000000E+00
  0.00000000E+00  0.00000000E+00  0.00000000E+00
  0.00000000E+00  0.00000000E+00  0.00000000E+00
  0.00000000E+00  0.00000000E+00  0.00000000E+00
  0.00000000E+00  0.00000000E+00  0.00000000E+00
  0.00000000E+00  0.00000000E+00  0.00000000E+00
  0.00000000E+00  0.00000000E+00  0.00000000E+00
  0.00000000E+00  0.00000000E+00  0.00000000E+00
  0.00000000E+00  0.00000000E+00  0.00000000E+00
  0.00000000E+00  0.00000000E+00  0.00000000E+00
  0.00000000E+00  0.00000000E+00  0.00000000E+00
  0.00000000E+00  0.00000000E+00  0.00000000E+00
  0.00000000E+00  0.00000000E+00  0.00000000E+00
  0.00000000E+00  0.00000000E+00  0.00000000E+00
  0.00000000E+00  0.00000000E+00  0.00000000E+00
  0.00000000E+00  0.00000000E+00  0.00000000E+00
  0.00000000E+00  0.00000000E+00  0.00000000E+00
  0.00000000E+00  0.00000000E+00  0.00000000E+00
  0.00000000E+00  0.00000000E+00  0.00000000E+00
  0.00000000E+00  0.00000000E+00  0.00000000E+00
  0.00000000E+00  0.00000000E+00  0.00000000E+00
  0.00000000E+00  0.00000000E+00  0.00000000E+00
  0.00000000E+00  0.00000000E+00  0.00000000E+00
  0.00000000E+00  0.00000000E+00  0.00000000E+00
  0.00000000E+00  0.00000000E+00  0.00000000E+00
  0.00000000E+00  0.00000000E+00  0.00000000E+00
  0.00000000E+00  0.00000000E+00  0.00000000E+00
  0.00000000E+00  0.00000000E+00  0.00000000E+00
  0.00000000E+00  0.00000000E+00  0.00000000E+00
  0.00000000E+00  0.00000000E+00  0.00000000E+00
  0.00000000E+00  0.00000000E+00  0.00000000E+00
  0.00000000E+00  0.00000000E+00  0.00000000E+00
  0.00000000E+00  0.00000000E+00  0.00000000E+00
  0.00000000E+00  0.00000000E+00  0.00000000E+00
  0.00000000E+00  0.00000000E+00  0.00000000E+00
  0.00000000E+00  0.00000000E+00  0.00000000E+00
  0.00000000E+00  0.00000000E+00  0.00000000E+00
  0.00000000E+00  0.00000000E+00  0.00000000E+00
  0.00000000E+00  0.00000000E+00  0.00000000E+00
  0.00000000E+00  0.00000000E+00  0.00000000E+00
  0.00000000E+00  0.00000000E+00  0.00000000E+00
  0.00000000E+00  0.00000000E+00  0.00000000E+00
  0.00000000E+00  0.00000000E+00  0.00000000E+00
  0.00000000E+00  0.00000000E+00  0.00000000E+00
  0.00000000E+00  0.00000000E+00  0.00000000E+00
  0.00000000E+00  0.00000000E+00  0.00000000E+00
  0.00000000E+00  0.00000000E+00  0.00000000E+00
  0.00000000E+00  0.00000000E+00  0.00000000E+00
  0.00000000E+00  0.00000000E+00  0.00000000E+00
  0.00000000E+00  0.00000000E+00  0.00000000E+00
  0.00000000E+00  0.00000000E+00  0.00000000E+00
  0.00000000E+00  0.00000000E+00  0.00000000E+00
  0.00000000E+00  0.00000000E+00  0.00000000E+00
  0.00000000E+00  0.00000000E+00  0.00000000E+00
  0.00000000E+00  0.00000000E+00  0.00000000E+00
  0.00000000E+00  0.00000000E+00  0.00000000E+00
  0.00000000E+00  0.00000000E+00  0.00000000E+00
  0.00000000E+00  0.00000000E+00  0.00000000E+00
  0.00000000E+00  0.00000000E+00  0.00000000E+00
  0.00000000E+00  0.00000000E+00  0.00000000E+00
  0.00000000E+00  0.00000000E+00  0.00000000E+00
  0.00000000E+00  0.00000000E+00  0.00000000E+00
  0.00000000E+00  0.00000000E+00  0.00000000E+00
  0.00000000E+00  0.00000000E+00  0.00000000E+00
  0.00000000E+00  0.00000000E+00  0.00000000E+00
  0.00000000E+00  0.00000000E+00  0.00000000E+00
  0.00000000E+00  0.00000000E+00  0.00000000E+00
  0.00000000E+00  0.00000000E+00  0.00000000E+00
  0.00000000E+00  0.00000000E+00  0.00000000E+00
  0.00000000E+00  0.00000000E+00  0.00000000E+00
  0.00000000E+00  0.00000000E+00  0.00000000E+00
  0.00000000E+00  0.00000000E+00  0.00000000E+00
  0.00000000E+00  0.00000000E+00  0.00000000E+00
  0.00000000E+00  0.00000000E+00  0.00000000E+00
  0.00000000E+00  0.00000000E+00  0.00000000E+00
  0.00000000E+00  0.00000000E+00  0.00000000E+00
  0.00000000E+00  0.00000000E+00  0.00000000E+00
  0.00000000E+00  0.00000000E+00  0.00000000E+00
  0.00000000E+00  0.00000000E+00  0.00000000E+00
  0.00000000E+00  0.00000000E+00  0.00000000E+00
  0.00000000E+00  0.00000000E+00  0.00000000E+00
  0.00000000E+00  0.00000000E+00  0.00000000E+00
  0.00000000E+00  0.00000000E+00  0.00000000E+00
  0.00000000E+00  0.00000000E+00  0.00000000E+00
  0.00000000E+00  0.00000000E+00  0.00000000E+00
  0.00000000E+00  0.00000000E+00  0.00000000E+00
  0.00000000E+00  0.00000000E+00  0.00000000E+00
  0.00000000E+00  0.00000000E+00  0.00000000E+00
  0.00000000E+00  0.00000000E+00  0.00000000E+00
  0.00000000E+00  0.00000000E+00  0.00000000E+00
  0.00000000E+00  0.00000000E+00  0.00000000E+00
  0.00000000E+00  0.00000000E+00  0.00000000E+00
  0.00000000E+00  0.00000000E+00  0.00000000E+00
  0.00000000E+00  0.00000000E+00  0.00000000E+00
  0.00000000E+00  0.00000000E+00  0.00000000E+00
  0.00000000E+00  0.00000000E+00  0.00000000E+00
  0.00000000E+00  0.00000000E+00  0.00000000E+00
  0.00000000E+00  0.00000000E+00  0.00000000E+00
  0.00000000E+00  0.00000000E+00  0.00000000E+00
  0.00000000E+00  0.00000000E+00  0.00000000E+00
  0.00000000E+00  0.00000000E+00  0.00000000E+00
  0.00000000E+00  0.00000000E+00  0.00000000E+00
  0.00000000E+00  0.00000000E+00  0.00000000E+00
  0.00000000E+00  0.00000000E+00  0.00000000E+00
  0.00000000E+00  0.00000000E+00  0.00000000E+00
  0.00000000E+00  0.00000000E+00  0.00000000E+00
  0.00000000E+00  0.00000000E+00  0.00000000E+00
  0.00000000E+00  0.00000000E+00  0.00000000E+00
  0.00000000E+00  0.00000000E+00  0.00000000E+00
  0.00000000E+00  0.00000000E+00  0.00000000E+00
  0.00000000E+00  0.00000000E+00  0.00000000E+00
  0.00000000E+00  0.00000000E+00  0.00000000E+00
  0.00000000E+00  0.00000000E+00  0.00000000E+00
  0.00000000E+00  0.00000000E+00  0.00000000E+00
  0.00000000E+00  0.00000000E+00  0.00000000E+00
  0.00000000E+00  0.00000000E+00  0.00000000E+00
  0.00000000E+00  0.00000000E+00  0.00000000E+00
  0.00000000E+00  0.00000000E+00  0.00000000E+00
  0.00000000E+00  0.00000000E+00  0.00000000E+00
  0.00000000E+00  0.00000000E+00  0.00000000E+00
  0.00000000E+00  0.00000000E+00  0.00000000E+00
  0.00000000E+00  0.00000000E+00  0.00000000E+00
  0.00000000E+00  0.00000000E+00  0.00000000E+00
  0.00000000E+00  0.00000000E+00  0.00000000E+00
  0.00000000E+00  0.00000000E+00  0.00000000E+00
  0.00000000E+00  0.00000000E+00  0.00000000E+00
  0.00000000E+00  0.00000000E+00  0.00000000E+00
  0.00000000E+00  0.00000000E+00  0.00000000E+00
  0.00000000E+00  0.00000000E+00  0.00000000E+00
  0.00000000E+00  0.00000000E+00  0.00000000E+00
  0.00000000E+00  0.00000000E+00  0.00000000E+00
  0.00000000E+00  0.00000000E+00  0.00000000E+00
  0.00000000E+00  0.00000000E+00  0.00000000E+00
  0.00000000E+00  0.00000000E+00  0.00000000E+00
  0.00000000E+00  0.00000000E+00  0.00000000E+00
  0.00000000E+00  0.00000000E+00  0.00000000E+00
  0.00000000E+00  0.00000000E+00  0.00000000E+00
  0.00000000E+00  0.00000000E+00  0.00000000E+00
  0.00000000E+00  0.00000000E+00  0.00000000E+00
  0.00000000E+00  0.00000000E+00  0.00000000E+00
  0.00000000E+00  0.00000000E+00  0.00000000E+00
  0.00000000E+00  0.00000000E+00  0.00000000E+00
  0.00000000E+00  0.00000000E+00  0.00000000E+00
  0.00000000E+00  0.00000000E+00  0.00000000E+00
  0.00000000E+00  0.00000000E+00  0.00000000E+00
  0.00000000E+00  0.00000000E+00  0.00000000E+00
  0.00000000E+00  0.00000000E+00  0.00000000E+00
  0.00000000E+00  0.00000000E+00  0.00000000E+00
  0.00000000E+00  0.00000000E+00  0.00000000E+00
  0.00000000E+00  0.00000000E+00  0.00000000E+00
  0.00000000E+00  0.00000000E+00  0.00000000E+00
  0.00000000E+00  0.00000000E+00  0.00000000E+00
  0.00000000E+00  0.00000000E+00  0.00000000E+00
  0.00000000E+00  0.00000000E+00  0.00000000E+00
  0.00000000E+00  0.00000000E+00  0.00000000E+00
  0.00000000E+00  0.00000000E+00  0.00000000E+00
  0.00000000E+00  0.00000000E+00  0.00000000E+00
  0.00000000E+00  0.00000000E+00  0.00000000E+00
  0.00000000E+00  0.00000000E+00  0.00000000E+00
  0.00000000E+00  0.00000000E+00  0.00000000E+00
  0.00000000E+00  0.00000000E+00  0.00000000E+00
  0.00000000E+00  0.00000000E+00  0.00000000E+00
  0.00000000E+00  0.00000000E+00  0.00000000E+00
  0.00000000E+00  0.00000000E+00  0.00000000E+00
  0.00000000E+00  0.00000000E+00  0.00000000E+00
  0.00000000E+00  0.00000000E+00  0.00000000E+00
  0.00000000E+00  0.00000000E+00  0.00000000E+00
  0.00000000E+00  0.00000000E+00  0.00000000E+00
  0.00000000E+00  0.00000000E+00  0.00000000E+00
  0.00000000E+00  0.00000000E+00  0.00000000E+00
  0.00000000E+00  0.00000000E+00  0.00000000E+00
  0.00000000E+00  0.00000000E+00  0.00000000E+00
